&CONTROL
   calculation      = 'relax'
   restart_mode     = 'from_scratch'
   wf_collect       = .true.
   nstep            = 1000
   tstress          = .false.
   tprnfor          = .true.
   outdir           = './outdir'
   pseudo_dir       = './pseudo'
/
&SYSTEM
   ecutwfc          = 77.0
   ecutrho          = 539.0
   nosym            = .true.
   occupations      = 'smearing'
   degauss          = 0.01
   smearing         = 'gaussian'
   assume_isolated  = 'esm'
   esm_bc           = 'bc1'
   vdw_corr         = 'dft-d3'
   dftd3_version    = 4
   ntyp             = 3
   nat              = 146
   ibrav            = 0
/
&ELECTRONS
   electron_maxstep = 1000
   conv_thr         = 1e-06
   mixing_beta      = 0.2
   diagonalization  = 'david'
/
&IONS
/
&CELL
/

ATOMIC_SPECIES
Mo 95.95 Mo.pbe-spn-kjpaw_psl.1.0.0.UPF
S 32.06 S.pbe-n-kjpaw_psl.1.0.0.UPF
Pd 106.42 Pd.pbe-spn-kjpaw_psl.1.0.0.UPF

K_POINTS automatic
2 2 1  0 0 0

CELL_PARAMETERS angstrom
12.61532217525308 0.00000000000000 0.00000000000000
-6.30767370294872 10.92519700214573 0.00000000000000
0.00000000000000 0.00000000000000 30.30125956094956

ATOMIC_POSITIONS angstrom
Mo 1.5703613864 2.7178817393 6.0883108471 
Mo 1.5769197498 0.9104407117 -6.0872367793  0 0 0
Mo 0.0001942117 1.8211270351 -0.0006730669 
S 0.0000044503 0.0000077495 -7.6506323570  0 0 0
S 1.5766906670 0.9108646077 -1.5667171507 
S 0.0023629950 1.8227808659 4.5078229266 
S 0.0000053241 0.0000068460 -4.5222282367  0 0 0
S 1.5771923454 0.9101093191 1.5656829642 
S -0.0116339578 1.8083185758 7.6478502179 
Mo -0.0149006888 5.4636354505 6.0883096296 
Mo 0.0000011799 3.6417399547 -6.0872367793  0 0 0
Mo -1.5766131748 4.5522307229 -0.0006723678 
S -1.5769141197 2.7313069925 -7.6506323570  0 0 0
S 0.0002925911 3.6419226668 -1.5659970847 
S -1.5740804518 4.5532546690 4.5078217411 
S -1.5769132459 2.7313060890 -4.5222282367  0 0 0
S 0.0011361888 3.6424086820 1.5671207920 
S -1.5936007141 4.5483639343 7.6478505759 
Mo -1.5786809985 8.1948915150 6.0797816784 
Mo -1.5769173901 6.3730391977 -6.0872367793  0 0 0
Mo -3.1538627704 7.2833090649 -0.0018805669 
S -3.1538326896 5.4626062355 -7.6506323570  0 0 0
S -1.5766775861 6.3726412811 -1.5667202826 
S -3.1538496968 7.2863973030 4.5103497769 
S -3.1538318159 5.4626053320 -4.5222282367  0 0 0
S -1.5770776026 6.3734536793 1.5656890668 
S -3.1538531653 7.2814807450 7.6453629934 
Mo 3.1538145477 -0.0020199287 6.0797837173 
Mo -3.1538359601 9.1043384407 -6.0872367793  0 0 0
Mo -4.7309165472 10.0148383903 -0.0018813301 
S -4.7307512596 8.1939054785 -7.6506323570  0 0 0
S -3.1538627142 9.1043309944 -1.5672612057 
S -4.7282188793 10.0132858887 4.5103497839 
S -4.7307503859 8.1939045750 -4.5222282367  0 0 0
S -3.1538667147 9.1043303462 1.5646771032 
S -4.7324812252 10.0157403200 7.6453631419 
Mo 4.7372632402 2.7178765316 6.0883039868 
Mo 4.7307503218 0.9104407117 -6.0872367793  0 0 0
Mo 3.1538177136 1.8209892916 -0.0012213613 
S 3.1538350223 0.0000077495 -7.6506323570  0 0 0
S 4.7309376020 0.9108611541 -1.5667229827 
S 3.1538089231 1.8206451627 4.5170331361 
S 3.1538358961 0.0000068460 -4.5222282367  0 0 0
S 4.7304355308 0.9101091953 1.5656945972 
S 3.1538146075 1.8137992003 7.6518221467 
Mo 3.1538105148 5.4625890420 6.1472945519 
Mo 3.1538317519 3.6417399547 -6.0872367793  0 0 0
Mo 1.5772652257 4.5523849763 -0.0007214049 
S 1.5769164523 2.7313069925 -7.6506323570  0 0 0
S 3.1538135826 3.6419150241 -1.5664356205 
S 1.5976005595 4.5641114642 4.5616044081 
S 1.5769173261 2.7313060890 -4.5222282367  0 0 0
S 3.1538149074 3.6416282147 1.5667695999 
S 1.4798451087 4.4961258537 7.7065550925 
Mo 1.5685428081 8.2062553264 6.0883009711 
Mo 1.5769131819 6.3730391977 -6.0872367793  0 0 0
Mo 0.0000756738 7.2834107928 -0.0012221280 
S -0.0000021176 5.4626062355 -7.6506323570  0 0 0
S 1.5770422741 6.3729468464 -1.5664392732 
S -0.0002087530 7.2835583283 4.5170302321 
S -0.0000012439 5.4626053320 -4.5222282367  0 0 0
S 1.5767976371 6.3730940345 1.5667671771 
S -0.0061345494 7.2869870361 7.6518199947 
Mo 6.3085210216 0.0004951990 6.0718357350 
Mo -0.0000053881 9.1043384407 -6.0872367793  0 0 0
Mo -1.5768125853 10.0148435893 -0.0018778434 
S -1.5769206876 8.1939054785 -7.6506323570  0 0 0
S 0.0004415552 9.1043007148 -1.5667218987 
S -1.5795029985 10.0132760014 4.5103482183 
S -1.5769198139 8.1939045750 -4.5222282367  0 0 0
S -0.0004589384 9.1042413836 1.5656911031 
S -1.5752340617 10.0157381048 7.6453620363 
Mo 7.8858194173 2.7305621864 6.0739747977 
Mo 7.8845808939 0.9104407117 -6.0872367793  0 0 0
Mo 6.3074170517 1.8211268029 -0.0006715968 
S 6.3076655943 0.0000077495 -7.6506323570  0 0 0
S 7.8842110714 0.9102420361 -1.5663175124 
S 6.3052657146 1.8227711156 4.5078163618 
S 6.3076664681 0.0000068460 -4.5222282367  0 0 0
S 7.8846675623 0.9105033848 1.5657631335 
S 6.3192659720 1.8083111152 7.6478341851 
Mo 6.3225293713 5.4636332086 6.0882995967 
Mo 6.3076623239 3.6417399547 -6.0872367793  0 0 0
Mo 4.7303494984 4.5523845554 -0.0007224767 
S 4.7307470244 2.7313069925 -7.6506323570  0 0 0
S 6.3073137807 3.6419176632 -1.5660013529 
S 4.7100214144 4.5641090410 4.5615993550 
S 4.7307478981 2.7313060890 -4.5222282367  0 0 0
S 6.3064712902 3.6424064584 1.5671232126 
S 4.8277813621 4.4961238284 7.7065438397 
Mo 4.7390688413 8.2062615011 6.0882967223 
Mo 4.7307437539 6.3730391977 -6.0872367793  0 0 0
Mo 3.1538028367 7.2830354665 -0.0007261108 
S 3.1538284544 5.4626062355 -7.6506323570  0 0 0
S 4.7305651887 6.3729406051 -1.5664406404 
S 3.1538062356 7.2595434991 4.5615980412 
S 3.1538293281 5.4626053320 -4.5222282367  0 0 0
S 4.7308069558 6.3730847740 1.5667727198 
S 3.1538093578 7.3955199832 7.7065392526 
Mo 9.4614770867 0.0014484450 6.0739704130 
Mo 3.1538251839 9.1043384407 -6.0872367793  0 0 0
Mo 1.5769935584 10.0144479326 -0.0006735308 
S 1.5769098844 8.1939054785 -7.6506323570  0 0 0
S 3.1537944345 9.1039639860 -1.5660033145 
S 1.5773571388 10.0117401197 4.5078123306 
S 1.5769107581 8.1939045750 -4.5222282367  0 0 0
S 3.1537957771 9.1029868152 1.5671176237 
S 1.5718382330 10.0310919527 7.6478319956 
Mo -1.5781840079 2.7305669095 6.0739866250 
Mo 11.0384114659 0.9104407117 -6.0872367793  0 0 0
Mo 9.4614613094 1.8208695260 -0.0015091794 
S 9.4614961663 0.0000077495 -7.6506323570  0 0 0
S 11.0387170965 0.9102368747 -1.5663170440 
S 9.4614844212 1.8208657163 4.5073756807 
S 9.4614970401 0.0000068460 -4.5222282367  0 0 0
S 11.0382606438 0.9104975971 1.5657597946 
S 9.4614746453 1.8208571522 7.6426652838 
Mo -3.1538434962 5.4615721157 6.0718434610 
Mo 9.4614928959 3.6417399547 -6.0872367793  0 0 0
Mo 7.8842105642 4.5522297904 -0.0006737672 
S 7.8845775964 2.7313069925 -7.6506323570  0 0 0
S 9.4614571284 3.6421277173 -1.5663187568 
S 7.8817215882 4.5532549224 4.5078166327 
S 7.8845784701 2.7313060890 -4.5222282367  0 0 0
S 9.4614548026 3.6416007751 1.5657629167 
S 7.9012319432 4.5483576626 7.6478372990 
Mo -4.7290251603 8.1948951682 6.0797793313 
Mo 7.8845743259 6.3730391977 -6.0872367793  0 0 0
Mo 6.3075236213 7.2833968405 -0.0012193287 
S 6.3076590264 5.4626062355 -7.6506323570  0 0 0
S 7.8842748158 6.3726380860 -1.5667216130 
S 6.3078247254 7.2835634617 4.5170264446 
S 6.3076599001 5.4626053320 -4.5222282367  0 0 0
S 7.8846780868 6.3734460714 1.5656930003 
S 6.3137497415 7.2869856975 7.6518076036 
Mo -0.0008907080 0.0005060463 6.0718431091 
Mo 6.3076557559 9.1043384407 -6.0872367793  0 0 0
Mo 4.7305957005 10.0144387790 -0.0006746603 
S 4.7307404564 8.1939054785 -7.6506323570  0 0 0
S 6.3071493618 9.1042814124 -1.5667199886 
S 4.7302538402 10.0117513652 4.5078142742 
S 4.7307413301 8.1939045750 -4.5222282367  0 0 0
S 6.3080521403 9.1042283056 1.5656889332 
S 4.7357657329 10.0310953935 7.6478333257 
Pd 3.1538115368 5.4625894670 9.0175538868 
Pd 1.5740000000 7.3415000000 9.4795000000 

