&CONTROL
   calculation      = 'scf'
   restart_mode     = 'from_scratch'
   wf_collect       = .true.
   tstress          = .false.
   tprnfor          = .true.
   outdir           = './outdir'
   pseudo_dir       = './pseudo'
/
&SYSTEM
   ecutwfc          = 77.0
   ecutrho          = 539.0
   nosym            = .true.
   occupations      = 'smearing'
   degauss          = 0.01
   smearing         = 'gaussian'
   assume_isolated  = 'esm'
   esm_bc           = 'bc1'
   vdw_corr         = 'dft-d3'
   dftd3_version    = 4
   ntyp             = 4
   nat              = 146
   ibrav            = 0
/
&ELECTRONS
   electron_maxstep = 1000
   conv_thr         = 1e-06
   mixing_beta      = 0.2
   diagonalization  = 'david'
/
&IONS
/
&CELL
/

ATOMIC_SPECIES
Mo 95.95 Mo.pbe-spn-kjpaw_psl.1.0.0.UPF
S 32.06 S.pbe-n-kjpaw_psl.1.0.0.UPF
Pd 106.42 Pd.pbe-spn-kjpaw_psl.1.0.0.UPF
H 1.008 H.pbe-kjpaw_psl.1.0.0.UPF

K_POINTS automatic
2 2 1  0 0 0

CELL_PARAMETERS angstrom
12.61532217525308 0.00000000000000 0.00000000000000
-6.30767370294872 10.92519700214573 0.00000000000000
0.00000000000000 0.00000000000000 30.30125956094956

ATOMIC_POSITIONS angstrom
Mo 1.5519428986 2.7228229171 6.1401278742 
Mo 1.5769197498 0.9104407117 -6.0872367793 
Mo 0.0003252429 1.8217615783 -0.0026924384 
S 0.0000044503 0.0000077495 -7.6506323570 
S 1.5771202935 0.9114036195 -1.5681805447 
S 0.0119677786 1.8346891899 4.5174799929 
S 0.0000053241 0.0000068460 -4.5222282367 
S 1.5769030559 0.9102276834 1.5640872222 
S -0.0463180229 1.7740887023 7.6495790361 
Mo -0.0199986132 5.4454943411 6.1397917584 
Mo 0.0000011799 3.6417399547 -6.0872367793 
Mo -1.5759911754 4.5520160255 -0.0026889369 
S -1.5769141197 2.7313069925 -7.6506323570 
S 0.0004851234 3.6420279069 -1.5685056588 
S -1.5590673667 4.5556683316 4.5172417192 
S -1.5769132459 2.7313060890 -4.5222282367 
S 0.0009661836 3.6423015769 1.5648614417 
S -1.6408595557 4.5358865285 7.6492323594 
Mo -1.5809656146 8.1895952109 6.0823496611 
Mo -1.5769173901 6.3730391977 -6.0872367793 
Mo -3.1536072891 7.2834309616 -0.0038677846 
S -3.1538326896 5.4626062355 -7.6506323570 
S -1.5759856192 6.3727433434 -1.5681734225 
S -3.1464262124 7.2876921089 4.4979392039 
S -3.1538318159 5.4626053320 -4.5222282367 
S -1.5771237550 6.3731453395 1.5640898756 
S -3.1661191124 7.2799045564 7.6366650248 
Mo 3.1479943437 -0.0011320076 6.0826284112 
Mo -3.1538359601 9.1043384407 -6.0872367793 
Mo -4.7306814883 10.0149997359 -0.0038687824 
S -4.7307512596 8.1939054785 -7.6506323570 
S -3.1533439623 9.1046321388 -1.5689830686 
S -4.7234839927 10.0194154817 4.4982185732 
S -4.7307503859 8.1939045750 -4.5222282367 
S -3.1541856237 9.1041496451 1.5630446248 
S -4.7400723186 10.0060107109 7.6368692856 
Mo 4.7307581125 2.7251061468 6.0815857070 
Mo 4.7307503218 0.9104407117 -6.0872367793 
Mo 3.1536740692 1.8213717081 -0.0017611206 
S 3.1538350223 0.0000077495 -7.6506323570 
S 4.7307907396 0.9109968395 -1.5673170958 
S 3.1305347998 1.8332627526 4.5351065146 
S 3.1538358961 0.0000068460 -4.5222282367 
S 4.7294132971 0.9101123569 1.5656355087 
S 3.1674991878 1.8083089270 7.6653703921 
Mo 3.1820830222 5.4789533880 6.0865454620 
Mo 3.1538317519 3.6417399547 -6.0872367793 
Mo 1.5767512080 4.5520853177 -0.0020239569 
S 1.5769164523 2.7313069925 -7.6506323570 
S 3.1539704557 3.6421327752 -1.5671130637 
S 1.5815654359 4.5548990483 4.5985094885 
S 1.5769173261 2.7313060890 -4.5222282367 
S 3.1527929442 3.6422507239 1.5668033099 
S 1.3297947444 4.4099678374 7.8834734157 
Mo 1.5715501386 8.1971050832 6.0814066016 
Mo 1.5769131819 6.3730391977 -6.0872367793 
Mo 0.0003460289 7.2830987240 -0.0017500219 
S -0.0000021176 5.4626062355 -7.6506323570 
S 1.5773233403 6.3729785849 -1.5671028245 
S -0.0009729372 7.2573663643 4.5348124297 
S -0.0000012439 5.4626053320 -4.5222282367 
S 1.5768345728 6.3718922260 1.5668115494 
S -0.0041939284 7.3017742664 7.6650625751 
Mo 6.3068601875 -0.0004350339 6.0675640386 
Mo -0.0000053881 9.1043384407 -6.0872367793 
Mo -1.5768797197 10.0148049904 -0.0025549194 
S -1.5769206876 8.1939054785 -7.6506323570 
S 0.0004986746 9.1041052661 -1.5673052258 
S -1.5833538672 10.0113031010 4.5131604757 
S -1.5769198139 8.1939045750 -4.5222282367 
S -0.0009679317 9.1033681014 1.5656481751 
S -1.5758326816 10.0153835860 7.6427541058 
Mo 7.8795341564 2.7294508107 6.0560507712 
Mo 7.8845808939 0.9104407117 -6.0872367793 
Mo 6.3072130722 1.8207949759 -0.0012323140 
S 6.3076655943 0.0000077495 -7.6506323570 
S 7.8843665506 0.9103150100 -1.5665892767 
S 6.2932693742 1.8183182609 4.4991749322 
S 6.3076664681 0.0000068460 -4.5222282367 
S 7.8842387383 0.9102548354 1.5653985792 
S 6.3168564697 1.8146591921 7.6377201350 
Mo 6.3252946305 5.4619851318 6.0577594825 
Mo 6.3076623239 3.6417399547 -6.0872367793 
Mo 4.7303954720 4.5523802363 -0.0013514921 
S 4.7307470244 2.7313069925 -7.6506323570 
S 6.3072706996 3.6415443465 -1.5668091861 
S 4.7186954202 4.5562172438 4.5230432348 
S 4.7307478981 2.7313060890 -4.5222282367 
S 6.3073891237 3.6421927526 1.5653112521 
S 4.8161340890 4.5134276238 7.6695558875 
Mo 4.7390205531 8.2095921234 6.0578171676 
Mo 4.7307437539 6.3730391977 -6.0872367793 
Mo 3.1538312463 7.2830748427 -0.0013377041 
S 3.1538284544 5.4626062355 -7.6506323570 
S 4.7304551864 6.3728834780 -1.5670988473 
S 3.1514167057 7.2710590740 4.5229831230 
S 3.1538293281 5.4626053320 -4.5222282367 
S 4.7309089857 6.3731295281 1.5656232463 
S 3.1629115493 7.3768809006 7.6694750762 
Mo 9.4573816854 -0.0033294205 6.0561382621 
Mo 3.1538251839 9.1043384407 -6.0872367793 
Mo 1.5766116947 10.0144308161 -0.0012186312 
S 1.5769098844 8.1939054785 -7.6506323570 
S 3.1534662217 9.1041076339 -1.5667924950 
S 1.5675753135 10.0037544546 4.4991404673 
S 1.5769107581 8.1939045750 -4.5222282367 
S 3.1540844702 9.1038885807 1.5653253268 
S 1.5761416019 10.0257913516 7.6376883563 
Mo -1.5929816904 2.7221517674 6.0690412356 
Mo 11.0384114659 0.9104407117 -6.0872367793 
Mo 9.4615691320 1.8209198007 -0.0014301728 
S 9.4614961663 0.0000077495 -7.6506323570 
S 11.0381917389 0.9107028842 -1.5672201259 
S 9.4570192588 1.8183073796 4.4896799594 
S 9.4614970401 0.0000068460 -4.5222282367 
S 11.0395059778 0.9110624761 1.5650757224 
S 9.4442624936 1.8110253734 7.6297084954 
Mo -3.1663099703 5.4613420276 6.0575465425 
Mo 9.4614928959 3.6417399547 -6.0872367793 
Mo 7.8846792830 4.5521954548 -0.0020925994 
S 7.8845775964 2.7313069925 -7.6506323570 
S 9.4616088930 3.6414170940 -1.5672242143 
S 7.8857151261 4.5494295968 4.4828126621 
S 7.8845784701 2.7313060890 -4.5222282367 
S 9.4625605218 3.6423819885 1.5650681164 
S 7.8841680420 4.5460616673 7.6304580648 
Mo -4.7290715406 8.1949708196 6.0610080272 
Mo 7.8845743259 6.3730391977 -6.0872367793 
Mo 6.3076937080 7.2834965662 -0.0024049400 
S 6.3076590264 5.4626062355 -7.6506323570 
S 7.8842796706 6.3726133280 -1.5682408686 
S 6.3114760931 7.2857566840 4.4903033556 
S 6.3076599001 5.4626053320 -4.5222282367 
S 7.8854541990 6.3735837213 1.5636966769 
S 6.3096871988 7.2846613077 7.6229317402 
Mo -0.0073738145 -0.0099633778 6.0578335663 
Mo 6.3076557559 9.1043384407 -6.0872367793 
Mo 4.7308108992 10.0148586961 -0.0020782581 
S 4.7307404564 8.1939054785 -7.6506323570 
S 6.3071322331 9.1043053851 -1.5682358907 
S 4.7290580399 10.0173297872 4.4830144824 
S 4.7307413301 8.1939045750 -4.5222282367 
S 6.3085756441 9.1048346581 1.5637069628 
S 4.7252180278 10.0175710212 7.6306135402 
Pd 3.0778425241 5.4188240309 8.9735076141 
H 0.3879246504 3.8673970245 8.7824330808 

