&CONTROL
   calculation      = 'relax'
   restart_mode     = 'from_scratch'
   wf_collect       = .true.
   nstep            = 1000
   tstress          = .false.
   tprnfor          = .true.
   outdir           = './outdir'
   pseudo_dir       = './pseudo'
/
&SYSTEM
   ecutwfc          = 77.0
   ecutrho          = 539.0
   nosym            = .true.
   occupations      = 'smearing'
   degauss          = 0.01
   smearing         = 'gaussian'
   assume_isolated  = 'esm'
   esm_bc           = 'bc1'
   vdw_corr         = 'dft-d3'
   dftd3_version    = 4
   ntyp             = 3
   nat              = 196
   ibrav            = 0
/
&ELECTRONS
   electron_maxstep = 1000
   conv_thr         = 1e-06
   mixing_beta      = 0.2
   diagonalization  = 'david'
/
&IONS
/
&CELL
/

ATOMIC_SPECIES
Mo 95.95 Mo.pbe-spn-kjpaw_psl.1.0.0.UPF
S 32.06 S.pbe-n-kjpaw_psl.1.0.0.UPF
Pd 106.42 Pd.pbe-spn-kjpaw_psl.1.0.0.UPF

K_POINTS automatic
2 2 1  0 0 0

CELL_PARAMETERS angstrom
12.60495876880469 0.00000000000000 0.00000000000000
-6.30246677944357 10.91622202271285 0.00000000000000
0.00000000000000 0.00000000000000 36.46614571815195

ATOMIC_POSITIONS angstrom
Mo 0.0000119917 1.8193638619 -9.1672481230  0 0 0
Mo 1.5756136568 0.9097075315 -3.0554901653  0 0 0
S 0.0000188998 1.8193822938 -4.6232556019  0 0 0
S 1.5756321638 0.9096773839 -7.6014065489  0 0 0
S 1.5756326175 0.9096785128 -10.7330757790  0 0 0
S 0.0000189190 1.8193860094 -1.4877129945  0 0 0
Mo -0.0007345954 1.8242583040 3.0600852428 
Mo 1.5742966606 0.9063453984 9.1761024598 
S -0.0052523149 1.8208143839 7.6094837479 
S 1.5745948705 0.9145544935 4.6280442199 
S 1.5751367552 0.9147015014 1.4923474105 
S -0.0090731307 1.7695742940 10.7709883966 
Mo -1.5756053507 4.5484193819 -9.1672481230  0 0 0
Mo 0.0000378379 3.6387394919 -3.0554952701  0 0 0
S -1.5755913433 4.5484363582 -4.6232494962  0 0 0
S 0.0000148214 3.6387329039 -7.6014065489  0 0 0
S 0.0000152751 3.6387340328 -10.7330757790  0 0 0
S -1.5755906502 4.5484413613 -1.4877305502  0 0 0
Mo -1.5762381682 4.5531708473 3.0600643511 
Mo -0.0320086579 3.6317032704 9.1728516442 
S -1.5867955192 4.5604873189 7.6094579597 
S -0.0010973299 3.6433664111 4.6286551122 
S 0.0000505354 3.6438489028 1.4926451178 
S -1.6331642467 4.5829917327 10.7707949161 
Mo -3.1512226931 7.2774749019 -9.1672481230  0 0 0
Mo -1.5755910988 6.3678216792 -3.0555115988  0 0 0
S -3.1512162438 7.2774954350 -4.6232578178  0 0 0
S -1.5756025210 6.3677884239 -7.6014065489  0 0 0
S -1.5756020673 6.3677895528 -10.7330757790  0 0 0
S -3.1512127704 7.2774877076 -1.4877200710  0 0 0
Mo -3.1518916506 7.2821773691 3.0599710254 
Mo -1.5892714281 6.3857458473 9.1759761690 
S -3.1536898164 7.2890060832 7.5965417949 
S -1.5764427519 6.3723736347 4.6280289394 
S -1.5759157468 6.3725553322 1.4923538690 
S -3.1625829879 7.2950693484 10.7409216729 
Mo -4.7268400355 10.0065304219 -9.1672481230  0 0 0
Mo -3.1512405618 9.0968403586 -3.0554816746  0 0 0
S -4.7268341792 10.0065523623 -4.6232463762  0 0 0
S -3.1512198634 9.0968439439 -7.6014065489  0 0 0
S -3.1512194097 9.0968450728 -10.7330757790  0 0 0
S -4.7268370797 10.0065537885 -1.4877176751  0 0 0
Mo -4.7276010797 10.0114245723 3.0599644441 
Mo -3.1531072552 9.1071653531 9.1672772322 
S -4.7276212384 10.0161427001 7.5966066562 
S -3.1520082353 9.1016502283 4.6275933707 
S -3.1522205371 9.1013611050 1.4919849454 
S -4.7268196401 10.0053315882 10.7409976087 
Mo 3.1512517547 1.8193638619 -9.1672481230  0 0 0
Mo 4.7269020221 0.9097289540 -3.0554823951  0 0 0
S 3.1512612351 1.8193882564 -4.6232320683  0 0 0
S 4.7268719268 0.9096773839 -7.6014065489  0 0 0
S 4.7268723805 0.9096785128 -10.7330757790  0 0 0
S 3.1512592485 1.8193890201 -1.4877261251  0 0 0
Mo 3.1504947229 1.8241930917 3.0606921449 
Mo 4.7292192828 0.9097058939 9.1727409691 
S 3.1548265067 1.8208571600 7.6119235195 
S 4.7265906725 0.9142620524 4.6277528527 
S 4.7255085684 0.9143774772 1.4922081752 
S 3.1564061031 1.7725250108 10.7721971777 
Mo 1.5756344123 4.5484193819 -9.1672481230  0 0 0
Mo 3.1512756394 3.6387769522 -3.0554814834  0 0 0
S 1.5756504879 4.5484423799 -4.6232390542  0 0 0
S 3.1512545844 3.6387329039 -7.6014065489  0 0 0
S 3.1512550381 3.6387340328 -10.7330757790  0 0 0
S 1.5756466253 4.5484431864 -1.4877251801  0 0 0
Mo 1.5750850269 4.5533102412 3.0613990286 
Mo 3.1832024160 3.6326036767 9.1711454657 
S 1.5743138321 4.5591553886 7.6402144165 
S 3.1510505862 3.6434738948 4.6292867613 
S 3.1502889813 3.6435629290 1.4931565128 
S 1.5773784913 4.5605350071 10.6789012117 
Mo 0.0000170699 7.2774749019 -9.1672481230  0 0 0
Mo 1.5756764447 6.3678236689 -3.0554877708  0 0 0
S 0.0000381981 7.2774979204 -4.6232454413  0 0 0
S 1.5756372420 6.3677884239 -7.6014065489  0 0 0
S 1.5756376957 6.3677895528 -10.7330757790  0 0 0
S 0.0000328088 7.2774946042 -1.4877307940  0 0 0
Mo -0.0006617277 7.2822533311 3.0606878458 
Mo 1.5760479910 6.4156702040 9.1713132216 
S -0.0068000443 7.2973935568 7.6120748641 
S 1.5751020875 6.3731636187 4.6292675680 
S 1.5748830395 6.3721905480 1.4931254665 
S -0.0482703233 7.3229953894 10.7721435678 
Mo -1.5756002725 10.0065304219 -9.1672481230  0 0 0
Mo 0.0000873425 9.0968676911 -3.0554912329  0 0 0
S -1.5755883952 10.0065504530 -4.6232240150  0 0 0
S 0.0000198996 9.0968439439 -7.6014065489  0 0 0
S 0.0000203533 9.0968450728 -10.7330757790  0 0 0
S -1.5755859047 10.0065492576 -1.4877362381  0 0 0
Mo -1.5764951659 10.0112136403 3.0598314303 
Mo -0.0085036625 9.1165220220 9.1727913804 
S -1.5768769673 10.0172691770 7.5990681101 
S -0.0006614068 9.1022616775 4.6277527053 
S -0.0009819917 9.1010202411 1.4921913533 
S -1.5815558947 10.0146566424 10.7455395057 
Mo 6.3024915177 1.8193638619 -9.1672481230  0 0 0
Mo 7.8781001445 0.9096521684 -3.0554919963  0 0 0
S 6.3025008696 1.8193826232 -4.6232480596  0 0 0
S 7.8781116898 0.9096773839 -7.6014065489  0 0 0
S 7.8781121435 0.9096785128 -10.7330757790  0 0 0
S 6.3025042007 1.8193849068 -1.4877147524  0 0 0
Mo 6.3016809429 1.8240549328 3.0594488384 
Mo 7.8769984978 0.9207153297 9.1688965415 
S 6.3021579797 1.8269229370 7.5994391674 
S 7.8771258695 0.9143906425 4.6270740584 
S 7.8774482211 0.9144297641 1.4915722587 
S 6.3037647075 1.8297969847 10.7365697965 
Mo 4.7268741753 4.5484193819 -9.1672481230  0 0 0
Mo 6.3024679138 3.6387501714 -3.0554895197  0 0 0
S 4.7268748770 4.5484386753 -4.6232519432  0 0 0
S 6.3024943474 3.6387329039 -7.6014065489  0 0 0
S 6.3024948011 3.6387340328 -10.7330757790  0 0 0
S 4.7268770533 4.5484432419 -1.4877137856  0 0 0
Mo 4.7262249846 4.5531103353 3.0604846304 
Mo 6.3134114697 3.6511206898 9.1695343700 
S 4.7372311659 4.5623356351 7.6115660067 
S 6.3019536391 3.6429711107 4.6278063219 
S 6.3016463507 3.6437041361 1.4920716351 
S 4.7845402587 4.5840424227 10.7723039542 
Mo 3.1512568329 7.2774749019 -9.1672481230  0 0 0
Mo 4.7268384135 6.3678043337 -3.0554959052  0 0 0
S 3.1512606125 7.2774972547 -4.6232589675  0 0 0
S 4.7268770050 6.3677884239 -7.6014065489  0 0 0
S 4.7268774587 6.3677895528 -10.7330757790  0 0 0
S 3.1512629079 7.2774963749 -1.4877081835  0 0 0
Mo 3.1504899399 7.2823703654 3.0604220398 
Mo 4.7406534332 6.3873907490 9.1783569583 
S 3.1580876112 7.2966823486 7.6117744796 
S 4.7263826841 6.3727963119 4.6278876211 
S 4.7256890112 6.3721817838 1.4923026619 
S 3.2005683960 7.3269513847 10.7723829014 
Mo 1.5756394905 10.0065304219 -9.1672481230  0 0 0
Mo 3.1512330605 9.0968514907 -3.0554878870  0 0 0
S 1.5756499830 10.0065443759 -4.6232632674  0 0 0
S 3.1512596626 9.0968439439 -7.6014065489  0 0 0
S 3.1512601163 9.0968450728 -10.7330757790  0 0 0
S 1.5756503041 10.0065459699 -1.4877044377  0 0 0
Mo 1.5748251731 10.0113170333 3.0594423178 
Mo 3.1577029015 9.1174520834 9.1695639849 
S 1.5724487095 10.0201039549 7.5994411904 
S 3.1501224517 9.1021151515 4.6277789730 
S 3.1507195437 9.1013101098 1.4920250933 
S 1.5757334759 10.0201886104 10.7365597311 
Mo 9.4537312807 1.8193638619 -9.1672481230  0 0 0
Mo 11.0293863460 0.9096952246 -3.0554894007  0 0 0
S 9.4537395970 1.8193770750 -4.6232328036  0 0 0
S 11.0293514528 0.9096773839 -7.6014065489  0 0 0
S 11.0293519066 0.9096785128 -10.7330757790  0 0 0
S 9.4537393632 1.8193794783 -1.4877366147  0 0 0
Mo 9.4529352960 1.8241705716 3.0597219601 
Mo 11.0244630294 0.9099193778 9.1684705996 
S 9.4499200917 1.8285791479 7.5982647201 
S 11.0283868580 0.9146621127 4.6277145447 
S 11.0286889332 0.9144503512 1.4920963553 
S 9.4525339129 1.8302098709 10.7342689053 
Mo 7.8781139383 4.5484193819 -9.1672481230  0 0 0
Mo 9.4537539161 3.6387607911 -3.0554933032  0 0 0
S 7.8781175448 4.5484378232 -4.6232366318  0 0 0
S 9.4537341104 3.6387329039 -7.6014065489  0 0 0
S 9.4537345641 3.6387340328 -10.7330757790  0 0 0
S 7.8781194018 4.5484411585 -1.4877377057  0 0 0
Mo 7.8773817480 4.5530512455 3.0600101274 
Mo 9.4416764595 3.6515238382 9.1684071123 
S 7.8773469673 4.5596488414 7.5950186200 
S 9.4530132872 3.6433939831 4.6277277849 
S 9.4530698994 3.6435330590 1.4920772917 
S 7.8776693171 4.5612224235 10.7425827970 
Mo 6.3024965959 7.2774749019 -9.1672481230  0 0 0
Mo 7.8781361655 6.3678242352 -3.0555014130  0 0 0
S 6.3024973331 7.2774953556 -4.6232392528  0 0 0
S 7.8781167680 6.3677884239 -7.6014065489  0 0 0
S 7.8781172217 6.3677895528 -10.7330757790  0 0 0
S 6.3024989866 7.2774929744 -1.4877349119  0 0 0
Mo 6.3016521704 7.2822133649 3.0595861645 
Mo 7.8794220591 6.3783966836 9.1674659334 
S 6.3057702206 7.2907552877 7.6002456924 
S 7.8771228446 6.3726683223 4.6273525019 
S 7.8775599235 6.3722830654 1.4920956161 
S 6.3171188539 7.2974037871 10.7399736271 
Mo 4.7268792535 10.0065304219 -9.1672481230  0 0 0
Mo 6.3025111524 9.0968738021 -3.0554915260  0 0 0
S 4.7268840634 10.0065452125 -4.6232380477  0 0 0
S 6.3024994256 9.0968439439 -7.6014065489  0 0 0
S 6.3024998793 9.0968450728 -10.7330757790  0 0 0
S 4.7268847312 10.0065459141 -1.4877283294  0 0 0
Mo 4.7259835407 10.0114313934 3.0599861006 
Mo 6.3028921779 9.1098622418 9.1674518510 
S 4.7267793602 10.0172663984 7.5950278032 
S 6.3016625625 9.1014992416 4.6273161719 
S 6.3016739355 9.1018257975 1.4920950733 
S 4.7283040176 10.0167464698 10.7425706490 
Pd 1.5836394760 6.2402316477 12.2139290364 
Pd 3.0357781370 3.7269197809 12.2145164285 
Pd 0.1273811646 3.7242717326 12.2183697411 
Pd 1.5770000000 4.5610000000 13.7156666667 

