&CONTROL
   calculation      = 'relax'
   restart_mode     = 'from_scratch'
   wf_collect       = .true.
   nstep            = 1000
   tstress          = .false.
   tprnfor          = .true.
   outdir           = './outdir'
   pseudo_dir       = './pseudo'
/
&SYSTEM
   ecutwfc          = 77.0
   ecutrho          = 539.0
   nosym            = .true.
   occupations      = 'smearing'
   degauss          = 0.01
   smearing         = 'gaussian'
   assume_isolated  = 'esm'
   esm_bc           = 'bc1'
   vdw_corr         = 'dft-d3'
   dftd3_version    = 4
   ntyp             = 2
   nat              = 144
   ibrav            = 0
/
&ELECTRONS
   electron_maxstep = 1000
   conv_thr         = 1e-06
   mixing_beta      = 0.1
   diagonalization  = 'david'
/
&IONS
/
&CELL
/

ATOMIC_SPECIES
Mo 95.95 Mo.pbe-spn-kjpaw_psl.1.0.0.UPF
C 12.011 C.pbe-n-kjpaw_psl.1.0.0.UPF

K_POINTS automatic
2 2 1  0 0 0

CELL_PARAMETERS angstrom
12.03707724200361 0.00000000000000 0.00000000000000
0.00000390944338 14.02965697189368 0.00000000000000
0.00000000000000 0.00000000000000 24.31132228896704

ATOMIC_POSITIONS angstrom
Mo 0.7392252389 4.9522730417 -2.3561253762  0 0 0
Mo 5.2792801198 5.9037143760 -4.6268703194  0 0 0
Mo 2.2700251672 3.0055316874 -4.0731038654  0 0 0
Mo 3.7485363322 0.8356311525 -2.9099173021  0 0 0
Mo 2.2700294198 5.9298762914 -4.6556611445  0 0 0
Mo 3.7485340266 4.9260992348 -2.3273400206  0 0 0
Mo 0.7392304753 0.8094627244 -2.8811300177  0 0 0
Mo 5.2792763737 3.0316885591 -4.1018914514  0 0 0
C 2.2717523646 6.3882748537 -2.6186380862  0 0 0
C 3.7468086790 4.4677111832 -4.3643670699  0 0 0
C 0.7375030465 2.8808701434 -2.6186281718  0 0 0
C 5.2810110689 0.9602819819 -4.3643859785  0 0 0
Mo 0.7392190702 1.7785916680 1.1353752064 
Mo 5.2792739512 2.7300330022 -1.1353697368 
Mo 2.2700209533 6.8466787996 -0.5816032828 
Mo 3.7485321183 4.6767782648 0.5815832804 
Mo 2.2700232511 2.7561949177 -1.1641605619 
Mo 3.7485278580 1.7524178611 1.1641605619 
Mo 0.7392262613 4.6506098366 0.6103705649 
Mo 5.2792721598 6.8728356713 -0.6103908689 
C 2.2717461960 3.2145934799 0.8728624964 
C 3.7468025103 1.2940298095 -0.8728664873 
C 0.7374988325 6.7220172556 0.8728724107 
C 5.2810068550 4.8014290941 -0.8728853960 
Mo 0.7392148563 5.6197387802 4.6268757890 
Mo 5.2792697373 6.5711801145 2.3561308457 
Mo 2.2700147846 3.6729974259 2.9098972997 
Mo 3.7485259496 1.5030968910 4.0730838630 
Mo 2.2700190372 6.5973420299 2.3273400206 
Mo 3.7485236440 5.5935649733 4.6556611445 
Mo 0.7392200927 1.4769284629 4.1018711475 
Mo 5.2792659911 3.6991542976 2.8811097137 
C 2.2717400273 0.0409121062 4.3643630789 
C 3.7467982964 5.1351769217 2.6186340952 
C 0.7374926639 3.5483358819 4.3643729933 
C 5.2810006863 1.6277477204 2.6186151866 
Mo 0.7392271936 11.9671015276 -2.3561253762  0 0 0
Mo 5.2792820746 12.9185428619 -4.6268703194  0 0 0
Mo 2.2700271219 10.0203601733 -4.0731038654  0 0 0
Mo 3.7485382869 7.8504596385 -2.9099173021  0 0 0
Mo 2.2700313745 12.9447047774 -4.6556611445  0 0 0
Mo 3.7485359814 11.9409277208 -2.3273400206  0 0 0
Mo 0.7392324300 7.8242912103 -2.8811300177  0 0 0
Mo 5.2792783285 10.0465170451 -4.1018914514  0 0 0
C 2.2717543193 13.4031033396 -2.6186380862  0 0 0
C 3.7468106337 11.4825396691 -4.3643670699  0 0 0
C 0.7375050012 9.8956986294 -2.6186281718  0 0 0
C 5.2810130237 7.9751104678 -4.3643859785  0 0 0
Mo 0.7392210249 8.7934201539 1.1353752064 
Mo 5.2792759059 9.7448614882 -1.1353697368 
Mo 2.2700229080 13.8615072855 -0.5816032828 
Mo 3.7485340730 11.6916067507 0.5815832804 
Mo 2.2700252058 9.7710234037 -1.1641605619 
Mo 3.7485298127 8.7672463471 1.1641605619 
Mo 0.7392282161 11.6654383225 0.6103705649 
Mo 5.2792741145 13.8876641573 -0.6103908689 
C 2.2717481507 10.2294219659 0.8728624964 
C 3.7468044650 8.3088582954 -0.8728664873 
C 0.7375007872 13.7368457416 0.8728724107 
C 5.2810088097 11.8162575801 -0.8728853960 
Mo 0.7392168110 12.6345672661 4.6268757890 
Mo 5.2792716920 13.5860086004 2.3561308457 
Mo 2.2700167393 10.6878259118 2.9098972997 
Mo 3.7485279043 8.5179253770 4.0730838630 
Mo 2.2700209919 13.6121705159 2.3273400206 
Mo 3.7485255988 12.6083934593 4.6556611445 
Mo 0.7392220474 8.4917569488 4.1018711475 
Mo 5.2792679459 10.7139827836 2.8811097137 
C 2.2717419820 7.0557405922 4.3643630789 
C 3.7468002511 12.1500054076 2.6186340952 
C 0.7374946186 10.5631643679 4.3643729933 
C 5.2810026411 8.6425762063 2.6186151866 
Mo 6.7577638599 4.9522730417 -2.3561253762  0 0 0
Mo 11.2978187408 5.9037143760 -4.6268703194  0 0 0
Mo 8.2885637882 3.0055316874 -4.0731038654  0 0 0
Mo 9.7670749532 0.8356311525 -2.9099173021  0 0 0
Mo 8.2885680408 5.9298762914 -4.6556611445  0 0 0
Mo 9.7670726476 4.9260992348 -2.3273400206  0 0 0
Mo 6.7577690963 0.8094627244 -2.8811300177  0 0 0
Mo 11.2978149947 3.0316885591 -4.1018914514  0 0 0
C 8.2902909856 6.3882748537 -2.6186380862  0 0 0
C 9.7653473000 4.4677111832 -4.3643670699  0 0 0
C 6.7560416675 2.8808701434 -2.6186281718  0 0 0
C 11.2995496899 0.9602819819 -4.3643859785  0 0 0
Mo 6.7577576912 1.7785916680 1.1353752064 
Mo 11.2978125722 2.7300330022 -1.1353697368 
Mo 8.2885595743 6.8466787996 -0.5816032828 
Mo 9.7670707393 4.6767782648 0.5815832804 
Mo 8.2885618721 2.7561949177 -1.1641605619 
Mo 9.7670664790 1.7524178611 1.1641605619 
Mo 6.7577648823 4.6506098366 0.6103705649 
Mo 11.2978107808 6.8728356713 -0.6103908689 
C 8.2902848170 3.2145934799 0.8728624964 
C 9.7653411313 1.2940298095 -0.8728664873 
C 6.7560374535 6.7220172556 0.8728724107 
C 11.2995454760 4.8014290941 -0.8728853960 
Mo 6.7577534773 5.6197387802 4.6268757890 
Mo 11.2978083583 6.5711801145 2.3561308457 
Mo 8.2885534056 3.6729974259 2.9098972997 
Mo 9.7670645706 1.5030968910 4.0730838630 
Mo 8.2885576582 6.5973420299 2.3273400206 
Mo 9.7670622650 5.5935649733 4.6556611445 
Mo 6.7577587137 1.4769284629 4.1018711475 
Mo 11.2978046121 3.6991542976 2.8811097137 
C 8.2902786483 0.0409121062 4.3643630789 
C 9.7653369174 5.1351769217 2.6186340952 
C 6.7560312849 3.5483358819 4.3643729933 
C 11.2995393073 1.6277477204 2.6186151866 
Mo 6.7577658146 11.9671015276 -2.3561253762  0 0 0
Mo 11.2978206956 12.9185428619 -4.6268703194  0 0 0
Mo 8.2885657429 10.0203601733 -4.0731038654  0 0 0
Mo 9.7670769079 7.8504596385 -2.9099173021  0 0 0
Mo 8.2885699955 12.9447047774 -4.6556611445  0 0 0
Mo 9.7670746024 11.9409277208 -2.3273400206  0 0 0
Mo 6.7577710510 7.8242912103 -2.8811300177  0 0 0
Mo 11.2978169495 10.0465170451 -4.1018914514  0 0 0
C 8.2902929403 13.4031033396 -2.6186380862  0 0 0
C 9.7653492547 11.4825396691 -4.3643670699  0 0 0
C 6.7560436222 9.8956986294 -2.6186281718  0 0 0
C 11.2995516447 7.9751104678 -4.3643859785  0 0 0
Mo 6.7577596459 8.7934201539 1.1353752064 
Mo 11.2978145269 9.7448614882 -1.1353697368 
Mo 8.2885615290 13.8615072855 -0.5816032828 
Mo 9.7670726940 11.6916067507 0.5815832804 
Mo 8.2885638268 9.7710234037 -1.1641605619 
Mo 9.7670684337 8.7672463471 1.1641605619 
Mo 6.7577668371 11.6654383225 0.6103705649 
Mo 11.2978127355 13.8876641573 -0.6103908689 
C 8.2902867717 10.2294219659 0.8728624964 
C 9.7653430860 8.3088582954 -0.8728664873 
C 6.7560394082 13.7368457416 0.8728724107 
C 11.2995474307 11.8162575801 -0.8728853960 
Mo 6.7577554320 12.6345672661 4.6268757890 
Mo 11.2978103130 13.5860086004 2.3561308457 
Mo 8.2885553603 10.6878259118 2.9098972997 
Mo 9.7670665253 8.5179253770 4.0730838630 
Mo 8.2885596129 13.6121705159 2.3273400206 
Mo 9.7670642198 12.6083934593 4.6556611445 
Mo 6.7577606684 8.4917569488 4.1018711475 
Mo 11.2978065669 10.7139827836 2.8811097137 
C 8.2902806030 7.0557405922 4.3643630789 
C 9.7653388721 12.1500054076 2.6186340952 
C 6.7560332396 10.5631643679 4.3643729933 
C 11.2995412621 8.6425762063 2.6186151866 

