&CONTROL
   calculation      = 'relax'
   restart_mode     = 'restart'
   wf_collect       = .true.
   nstep            = 9999
   tstress          = .false.
   tprnfor          = .true.
   outdir           = '/scratch/calc/bqoutdir'
   pseudo_dir       = './pseudo'
/
&SYSTEM
   ecutwfc          = 36
   ecutrho          = 400
   nosym            = .true.
   occupations      = 'smearing'
   degauss          = 0.01
   smearing         = 'gaussian'
   vdw_corr         = 'dft-d3'
   dftd3_version    = 4
   ntyp             = 5
   nat              = 372
   ibrav            = 0
/
&ELECTRONS
   electron_maxstep = 9999
   conv_thr         = 1e-06
   mixing_beta      = 0.2
   diagonalization  = 'ppcg'
/
&IONS
/
&CELL
/

ATOMIC_SPECIES
Cl 35.45 Cl.pbe-n-kjpaw_psl.1.0.0.UPF
C 12.011 C.pbe-n-kjpaw_psl.1.0.0.UPF
N 14.007 N.pbe-n-kjpaw_psl.1.0.0.UPF
H 1.008 H.pbe-kjpaw_psl.1.0.0.UPF
O 15.999 O.pbe-n-kjpaw_psl.1.0.0.UPF

K_POINTS automatic
2 2 2  0 0 0

CELL_PARAMETERS angstrom
30.50000000000000 0.00000000000000 0.00000000000000
0.00000000000000 6.44000000000000 0.00000000000000
-9.47237676168860 0.00000000000000 26.45532230921827

ATOMIC_POSITIONS angstrom
Cl 13.7273611862 2.1387240000 9.5926998693 
Cl 22.5502620521 2.1387240000 16.8626224399 
Cl -6.2588271946 5.3587240000 22.8203610239 
Cl 12.0364504329 5.3587240000 3.6349612853 
Cl 7.3002620521 4.3012760000 16.8626224399 
Cl -1.5226388138 4.3012760000 9.5926998693 
Cl 27.2864504329 1.0812760000 3.6349612853 
Cl 8.9911728054 1.0812760000 22.8203610239 
Cl 22.1800317832 4.7050640000 6.4471620468 
Cl 14.0975914551 4.7050640000 20.0081602625 
Cl 2.1938434023 1.4850640000 19.6748232014 
Cl 3.5837798360 1.4850640000 6.7804991079 
Cl -1.1524085449 1.7349360000 20.0081602625 
Cl 6.9300317832 1.7349360000 6.4471620468 
Cl 18.8337798360 4.9549360000 6.7804991079 
Cl 17.4438434023 4.9549360000 19.6748232014 
Cl 26.4710504539 2.2977920000 8.5768154926 
Cl 9.8065727845 2.2977920000 17.8785068166 
Cl 6.4848620730 5.5177920000 21.8044766473 
Cl -0.7072388347 5.5177920000 4.6508456620 
Cl -5.4434272155 4.1422080000 17.8785068166 
Cl 11.2210504539 4.1422080000 8.5768154926 
Cl 14.5427611653 0.9222080000 4.6508456620 
Cl 21.7348620730 0.9222080000 21.8044766473 
Cl 13.3377323146 3.4016080000 13.1086122042 
Cl 22.9398909237 3.4016080000 13.3467101050 
Cl -6.6484560663 0.1816080000 26.3362733588 
Cl 12.4260793046 0.1816080000 0.1190489504 
Cl 7.6898909237 3.0383920000 13.3467101050 
Cl -1.9122676854 3.0383920000 13.1086122042 
Cl 27.6760793046 6.2583920000 0.1190489504 
Cl 8.6015439337 6.2583920000 26.3362733588 
Cl 10.7484416896 4.8583360000 12.1694482622 
Cl -4.9708184513 4.8583360000 14.2858740470 
Cl 21.2622533088 1.6383360000 25.3971094168 
Cl 15.0153699295 1.6383360000 1.0582128924 
Cl 10.2791815487 1.5816640000 14.2858740470 
Cl 25.9984416896 1.5816640000 12.1694482622 
Cl -0.2346300705 4.8016640000 1.0582128924 
Cl 6.0122533088 4.8016640000 25.3971094168 
Cl 10.9215241879 1.0812760000 10.5054084890 
Cl -5.1439009496 1.0812760000 15.9499138202 
Cl 21.4353358071 4.3012760000 23.7330696436 
Cl 14.8422874312 4.3012760000 2.7222526656 
Cl 10.1060990504 5.3587240000 15.9499138202 
Cl 26.1715241879 5.3587240000 10.5054084890 
Cl -0.4077125688 2.1387240000 2.7222526656 
Cl 6.1853358071 2.1387240000 23.7330696436 
Cl 27.3283124275 6.2564600000 6.9074846549 
Cl 8.9493108108 6.2564600000 19.5478376543 
Cl 7.3421240467 3.0364600000 20.1351458095 
Cl -1.5645008084 3.0364600000 6.3201764997 
Cl -6.3006891892 0.1835400000 19.5478376543 
Cl 12.0783124275 0.1835400000 6.9074846549 
Cl 13.6854991916 3.4035400000 6.3201764997 
Cl 22.5921240467 3.4035400000 20.1351458095 
Cl 25.1824721441 4.3251040000 5.7196406833 
Cl 11.0951510942 4.3251040000 20.7356816260 
Cl 5.1962837633 1.1051040000 18.9473018379 
Cl 0.5813394750 1.1051040000 7.5080204714 
Cl -4.1548489058 2.1148960000 20.7356816260 
Cl 9.9324721441 2.1148960000 5.7196406833 
Cl 15.8313394750 5.3348960000 7.5080204714 
Cl 20.4462837633 5.3348960000 18.9473018379 
C 16.1936622724 0.3419640000 10.7382153253 
C 20.0839609659 0.3419640000 15.7171069839 
C -3.7925261084 3.5619640000 23.9658764799 
C 9.5701493467 3.5619640000 2.4894458293 
C 4.8339609659 6.0980360000 15.7171069839 
C 0.9436622724 6.0980360000 10.7382153253 
C 24.8201493467 2.8780360000 2.4894458293 
C 11.4574738916 2.8780360000 23.9658764799 
C 18.9466754695 0.4102280000 12.2832061482 
C 17.3309477688 0.4102280000 14.1721161610 
C -1.0395129113 3.6302280000 25.5108673028 
C 6.8171361496 3.6302280000 0.9444550064 
C 2.0809477688 6.0297720000 14.1721161610 
C 3.6966754695 6.0297720000 12.2832061482 
C 22.0671361496 2.8097720000 0.9444550064 
C 14.2104870887 2.8097720000 25.5108673028 
C 13.4326376315 4.8048840000 12.1033099565 
C 22.8449856068 4.8048840000 14.3520123528 
C -6.5535507493 1.5848840000 25.3309711111 
C 12.3311739876 1.5848840000 1.1243511981 
C 7.5949856068 1.6351160000 14.3520123528 
C -1.8173623685 1.6351160000 12.1033099565 
C 27.5811739876 4.8551160000 1.1243511981 
C 8.6964492507 4.8551160000 25.3309711111 
C 16.0331519995 4.8570480000 12.0212984573 
C 20.2444712388 4.8570480000 14.4340238519 
C -3.9530363814 1.6370480000 25.2489596119 
C 9.7306596197 1.6370480000 1.2063626973 
C 4.9944712388 1.5829520000 14.4340238519 
C 0.7831519995 1.5829520000 12.0212984573 
C 24.9806596197 4.8029520000 1.2063626973 
C 11.2969636186 4.8029520000 25.2489596119 
C 12.3558694467 0.2176720000 10.9366302426 
C 23.9217537916 0.2176720000 15.5186920666 
C -7.6303189341 3.4376720000 24.1642913972 
C 13.4079421724 3.4376720000 2.2910309120 
C 8.6717537916 6.2223280000 15.5186920666 
C -2.8941305533 6.2223280000 10.9366302426 
C 28.6579421724 3.0023280000 2.2910309120 
C 7.6196810659 3.0023280000 24.1642913972 
C 25.2950477426 1.2152280000 7.9947984018 
C 10.9825754957 1.2152280000 18.4605239074 
C 5.3088593618 4.4352280000 21.2224595565 
C 0.4687638765 4.4352280000 5.2328627528 
C -4.2674245043 5.2247720000 18.4605239074 
C 10.0450477426 5.2247720000 7.9947984018 
C 15.7187638765 2.0047720000 5.2328627528 
C 20.5588593618 2.0047720000 21.2224595565 
C 14.6635732830 5.3065600000 11.7064801218 
C 21.6140499554 5.3065600000 14.7488421874 
C -5.3226150979 2.0865600000 24.9341412764 
C 11.1002383362 2.0865600000 1.5211810328 
C 6.3640499554 1.1334400000 14.7488421874 
C -0.5864267170 1.1334400000 11.7064801218 
C 26.3502383362 4.3534400000 1.5211810328 
C 9.9273849021 4.3534400000 24.9341412764 
N 21.3231824626 4.1950160000 10.1350339767 
N 14.9544407757 4.1950160000 16.3202883326 
N 1.3369940818 0.9750160000 23.3626951313 
N 4.4406291566 0.9750160000 3.0926271779 
N -0.2955592243 2.2449840000 16.3202883326 
N 6.0731824626 2.2449840000 10.1350339767 
N 19.6906291566 5.4649840000 3.0926271779 
N 16.5869940818 5.4649840000 23.3626951313 
H 22.3603278656 4.3490350400 10.1421240030 
H 13.9172953727 4.3490350400 16.3131983062 
H 2.3741394848 1.1290350400 23.3697851576 
H 3.4034837535 1.1290350400 3.0855371516 
H -1.3327046273 2.0909649600 16.3131983062 
H 7.1103278656 2.0909649600 10.1421240030 
H 18.6534837535 5.3109649600 3.0855371516 
H 17.6241394848 5.3109649600 23.3697851576 
C 14.7253970700 0.0167440000 10.9630855649 
C 21.5522261684 0.0167440000 15.4922367443 
C -5.2607913109 3.2367440000 24.1907467195 
C 11.0384145492 3.2367440000 2.2645755897 
C 6.3022261684 6.4232560000 15.4922367443 
C -0.5246029300 6.4232560000 10.9630855649 
C 26.2884145492 3.2032560000 2.2645755897 
C 9.9892086891 3.2032560000 24.1907467195 
O 16.6697355031 1.2442080000 10.0900599287 
O 19.6078877352 1.2442080000 16.3652623805 
O -3.3164528778 4.4642080000 23.3177210833 
O 9.0940761161 4.4642080000 3.1376012259 
O 4.3578877352 5.1957920000 16.3652623805 
O 1.4197355031 5.1957920000 10.0900599287 
O 24.3440761161 1.9757920000 3.1376012259 
O 11.9335471222 1.9757920000 23.3177210833 
N 16.8857390418 5.7657320000 11.3863707219 
N 19.3918841965 5.7657320000 15.0689515873 
N -3.1004493391 2.5457320000 24.6140318765 
N 8.8780725774 2.5457320000 1.8412904327 
N 4.1418841965 0.6742680000 15.0689515873 
N 1.6357390418 0.6742680000 11.3863707219 
N 24.1280725774 3.8942680000 1.8412904327 
N 12.1495506609 3.8942680000 24.6140318765 
C 18.1388116192 1.2371240000 13.2276611546 
C 7.6250000000 4.4571240000 0.0000000000 
C 2.8888116192 5.2028760000 13.2276611546 
C 22.8750000000 1.9828760000 0.0000000000 
H 17.4940285254 1.8560981600 12.6778401911 
H 18.7835947129 1.8560981600 13.7774821182 
H -2.4921598555 5.0760981600 25.9055013457 
H 8.2697830938 5.0760981600 0.5498209636 
H 3.5335947129 4.5839018400 13.7774821182 
H 2.2440285254 4.5839018400 12.6778401911 
H 23.5197830938 1.3639018400 0.5498209636 
H 12.7578401445 1.3639018400 25.9055013457 
C 22.9701742726 0.5428920000 7.7328907110 
C 13.3074489658 0.5428920000 18.7224315982 
C 2.9839858917 3.7628920000 20.9605518656 
C 2.7936373466 3.7628920000 5.4947704436 
C -1.9425510342 5.8971080000 18.7224315982 
C 7.7201742726 5.8971080000 7.7328907110 
C 18.0436373466 2.6771080000 5.4947704436 
C 18.2339858917 2.6771080000 20.9605518656 
O 16.4322204819 3.8994200000 12.6615172572 
O 19.8454027565 3.8994200000 13.7938050520 
O -3.5539678990 0.6794200000 25.8891784118 
O 9.3315911373 0.6794200000 0.5661438974 
O 4.5954027565 2.5405800000 13.7938050520 
O 1.1822204819 2.5405800000 12.6615172572 
O 24.5815911373 5.7605800000 0.5661438974 
O 11.6960321010 5.7605800000 25.8891784118 
C 21.5866245313 1.0039960000 8.1641124646 
C 14.6909987070 1.0039960000 18.2912098446 
C 1.6004361505 4.2239960000 21.3917736192 
C 4.1771870878 4.2239960000 5.0635486900 
C -0.5590012930 5.4360040000 18.2912098446 
C 6.3366245313 5.4360040000 8.1641124646 
C 19.4271870878 2.2160040000 5.0635486900 
C 16.8504361505 2.2160040000 21.3917736192 
C 18.5991357813 3.7628920000 10.0424403486 
C 17.6784874570 3.7628920000 16.4128819606 
C -1.3870525996 0.5428920000 23.2701015032 
C 7.1646758379 0.5428920000 3.1852208060 
C 2.4284874570 2.6771080000 16.4128819606 
C 3.3491357813 2.6771080000 10.0424403486 
C 22.4146758379 5.8971080000 3.1852208060 
C 13.8629474004 5.8971080000 23.2701015032 
H 17.5628040548 3.6192349200 9.9718310933 
H 18.7148191835 3.6192349200 16.4834912159 
H -2.4233843260 0.3992349200 23.1994922479 
H 8.2010075643 0.3992349200 3.2558300613 
H 3.4648191835 2.8207650800 16.4834912159 
H 2.3128040548 2.8207650800 9.9718310933 
H 23.4510075643 6.0407650800 3.2558300613 
H 12.8266156740 6.0407650800 23.1994922479 
C 20.3649652548 0.6066480000 12.1297652788 
C 15.9126579835 0.6066480000 14.3255570304 
C 0.3787768739 3.8266480000 25.3574264334 
C 5.3988463644 3.8266480000 1.0978958758 
C 0.6626579835 5.8333520000 14.3255570304 
C 5.1149652548 5.8333520000 12.1297652788 
C 20.6488463644 2.6133520000 1.0978958758 
C 15.6287768739 2.6133520000 25.3574264334 
H 20.8175816915 1.4275676800 12.6018605054 
H 15.4600415469 1.4275676800 13.8534618038 
H 0.8313933106 4.6475676800 25.8295216600 
H 4.9462299277 4.6475676800 0.6258006492 
H 0.2100415469 5.0124323200 13.8534618038 
H 5.5675816915 5.0124323200 12.6018605054 
H 20.1962299277 1.7924323200 0.6258006492 
H 16.0813933106 1.7924323200 25.8295216600 
O 23.8429639802 3.4982080000 9.4948151768 
O 12.4346592581 3.4982080000 16.9605071324 
O 3.8567755994 0.2782080000 22.7224763314 
O 1.9208476389 0.2782080000 3.7328459778 
O -2.8153407419 2.9417920000 16.9605071324 
O 8.5929639802 2.9417920000 9.4948151768 
O 17.1708476389 6.1617920000 3.7328459778 
O 19.1067755994 6.1617920000 22.7224763314 
C 12.2375536685 5.4939640000 11.7355809764 
C 24.0400695698 5.4939640000 14.7197413328 
C -7.7486347123 2.2739640000 24.9632421310 
C 13.5262579506 2.2739640000 1.4920801782 
C 8.7900695698 0.9460360000 14.7197413328 
C -3.0124463315 0.9460360000 11.7355809764 
C 28.7762579506 4.1660360000 1.4920801782 
C 7.5013652877 4.1660360000 24.9632421310 
C 19.4350891193 2.8677320000 9.4710053867 
C 16.8425341190 2.8677320000 16.9843169225 
C -0.5510992615 6.0877320000 22.6986665413 
C 6.3287224998 6.0877320000 3.7566557679 
C 1.5925341190 3.5722680000 16.9843169225 
C 4.1850891193 3.5722680000 9.4710053867 
C 21.5787224998 0.3522680000 3.7566557679 
C 14.6989007385 0.3522680000 22.6986665413 
H 19.0532526630 2.0066331600 9.0070319440 
H 17.2243705753 2.0066331600 17.4482903652 
H -0.9329357179 5.2266331600 22.2346930987 
H 6.7105589562 5.2266331600 4.2206292106 
H 1.9743705753 4.4333668400 17.4482903652 
H 3.8032526630 4.4333668400 9.0070319440 
H 21.9605589562 1.2133668400 4.2206292106 
H 14.3170642821 1.2133668400 22.2346930987 
C 20.5466371333 5.1004800000 10.7620251154 
C 15.7309861050 5.1004800000 15.6932971938 
C 0.5604487525 1.8804800000 23.9896862700 
C 5.2171744858 1.8804800000 2.4656360392 
C 0.4809861050 1.3395200000 15.6932971938 
C 5.2966371333 1.3395200000 10.7620251154 
C 20.4671744858 4.5595200000 2.4656360392 
C 15.8104487525 4.5595200000 23.9896862700 
C 13.6121523358 0.7180600000 10.5371548758 
C 22.6654709025 0.7180600000 15.9181674335 
C -6.3740360450 3.9380600000 23.7648160304 
C 12.1516592833 3.9380600000 2.6905062788 
C 7.4154709025 5.7219400000 15.9181674335 
C -1.6378476642 5.7219400000 10.5371548758 
C 27.4016592833 2.5019400000 2.6905062788 
C 8.8759639550 2.5019400000 23.7648160304 
C 23.3177508219 5.8636200000 6.9921416863 
C 12.9598724164 5.8636200000 19.4631806229 
C 3.3315624410 2.6436200000 20.2198028409 
C 2.4460607973 2.6436200000 6.2355194683 
C -2.2901275836 0.5763800000 19.4631806229 
C 8.0677508219 0.5763800000 6.9921416863 
C 17.6960607973 3.7963800000 6.2355194683 
C 18.5815624410 3.7963800000 20.2198028409 
C 21.1127166650 6.2255480000 11.4128260442 
C 15.1649065733 6.2255480000 15.0424962650 
C 1.1265282842 3.0055480000 24.6404871988 
C 4.6510949541 3.0055480000 1.8148351104 
C -0.0850934267 0.2144520000 15.0424962650 
C 5.8627166650 0.2144520000 11.4128260442 
C 19.9010949541 3.4344520000 1.8148351104 
C 16.3765282842 3.4344520000 24.6404871988 
H 22.1400842818 6.4102278800 11.3262642296 
H 14.1375389565 6.4102278800 15.1290580796 
H 2.1538959009 3.1902278800 24.5539253842 
H 3.6237273374 3.1902278800 1.9013969250 
H -1.1124610435 0.0297721200 15.1290580796 
H 6.8900842818 0.0297721200 11.3262642296 
H 18.8737273374 3.2497721200 1.9013969250 
H 17.4038959009 3.2497721200 24.5539253842 
C 23.9575159662 1.4264600000 8.2037954481 
C 12.3201072721 1.4264600000 18.2515268611 
C 3.9713275854 4.6464600000 21.4314566027 
C 1.8062956530 4.6464600000 5.0238657065 
C -2.9298927279 5.0135400000 18.2515268611 
C 8.7075159662 5.0135400000 8.2037954481 
C 17.0562956530 1.7935400000 5.0238657065 
C 19.2213275854 1.7935400000 21.4314566027 
C 24.6970552532 5.6485240000 6.7090697376 
C 11.5805679851 5.6485240000 19.7462525716 
C 4.7108668724 2.4285240000 19.9367308922 
C 1.0667563659 2.4285240000 6.5185914170 
C -3.6694320149 0.7914760000 19.7462525716 
C 9.4470552532 0.7914760000 6.7090697376 
C 16.3167563659 4.0114760000 6.5185914170 
C 19.9608668724 4.0114760000 19.9367308922 
O 20.5354955366 0.4617480000 7.8969137093 
O 15.7421277017 0.4617480000 18.5584085999 
O 0.5493071558 3.6817480000 21.1245748639 
O 5.2283160825 3.6817480000 5.3307474453 
O 0.4921277017 5.9782520000 18.5584085999 
O 5.2854955366 5.9782520000 7.8969137093 
O 20.4783160825 2.7582520000 5.3307474453 
O 15.7993071558 2.7582520000 21.1245748639 
C 18.3364578217 5.8346400000 11.5001286078 
C 17.9411654166 5.8346400000 14.9551937014 
C -1.6497305592 2.6146400000 24.7277897624 
C 7.4273537975 2.6146400000 1.7275325468 
C 2.6911654166 0.6053600000 14.9551937014 
C 3.0864578217 0.6053600000 11.5001286078 
C 22.6773537975 3.8253600000 1.7275325468 
C 13.6002694408 3.8253600000 24.7277897624 
C 23.2465728429 2.5508840000 8.9286712794 
C 13.0310503954 2.5508840000 17.5266510299 
C 3.2603844621 5.7708840000 22.1563324340 
C 2.5172387762 5.7708840000 4.2989898752 
C -2.2189496046 3.8891160000 17.5266510299 
C 7.9965728429 3.8891160000 8.9286712794 
C 17.7672387762 0.6691160000 4.2989898752 
C 18.5103844621 0.6691160000 22.1563324340 
C 20.8520695049 3.1027920000 9.5001062412 
C 15.4255537334 3.1027920000 16.9552160680 
C 0.8658811240 6.3227920000 22.7277673958 
C 4.9117421143 6.3227920000 3.7275549134 
C 0.1755537334 3.3372080000 16.9552160680 
C 5.6020695049 3.3372080000 9.5001062412 
C 20.1617421143 0.1172080000 3.7275549134 
C 16.1158811240 0.1172080000 22.7277673958 
C 21.8318093095 2.2597960000 8.8678240380 
C 14.4458139288 2.2597960000 17.5874982712 
C 1.8456209286 5.4797960000 22.0954851927 
C 3.9320023097 5.4797960000 4.3598371166 
C -0.8041860712 4.1802040000 17.5874982712 
C 6.5818093095 4.1802040000 8.8678240380 
C 19.1820023097 0.9602040000 4.3598371166 
C 17.0956209286 0.9602040000 22.0954851927 
C 19.1190288464 4.9240240000 10.7540885187 
C 17.1585943919 4.9240240000 15.7012337905 
C -0.8671595345 1.7040240000 23.9817496733 
C 6.6447827728 1.7040240000 2.4735726359 
C 1.9085943919 1.5159760000 15.7012337905 
C 3.8690288464 1.5159760000 10.7540885187 
C 21.8947827728 4.7359760000 2.4735726359 
C 14.3828404655 4.7359760000 23.9817496733 
C 25.6581024715 0.0792120000 7.1852655392 
C 10.6195207668 0.0792120000 19.2700567700 
C 5.6719140907 3.2992120000 20.4129266938 
C 0.1057091476 3.2992120000 6.0423956154 
C -4.6304792332 6.3607880000 19.2700567700 
C 10.4081024715 6.3607880000 7.1852655392 
C 15.3557091476 3.1407880000 6.0423956154 
C 20.9219140907 3.1407880000 20.4129266938 

