&CONTROL
   calculation      = 'scf'
   restart_mode     = 'from_scratch'
   wf_collect       = .true.
   tstress          = .false.
   tprnfor          = .true.
   outdir           = './outdir'
   pseudo_dir       = './pseudo'
/
&SYSTEM
   ecutwfc          = 77.0
   ecutrho          = 539.0
   nosym            = .true.
   occupations      = 'smearing'
   degauss          = 0.01
   smearing         = 'gaussian'
   assume_isolated  = 'esm'
   esm_bc           = 'bc1'
   vdw_corr         = 'dft-d3'
   dftd3_version    = 4
   ntyp             = 3
   nat              = 193
   ibrav            = 0
/
&ELECTRONS
   electron_maxstep = 1000
   conv_thr         = 1e-06
   mixing_beta      = 0.2
   diagonalization  = 'david'
/
&IONS
/
&CELL
/

ATOMIC_SPECIES
Mo 95.95 Mo.pbe-spn-kjpaw_psl.1.0.0.UPF
S 32.06 S.pbe-n-kjpaw_psl.1.0.0.UPF
H 1.008 H.pbe-kjpaw_psl.1.0.0.UPF

K_POINTS automatic
2 2 1  0 0 0

CELL_PARAMETERS angstrom
12.60495876880469 0.00000000000000 0.00000000000000
-6.30246677944357 10.91622202271285 0.00000000000000
0.00000000000000 0.00000000000000 36.46614571815195

ATOMIC_POSITIONS angstrom
Mo 0.0000119917 1.8193638619 -9.1672481230 
Mo 1.5756136568 0.9097075315 -3.0554901653 
S 0.0000188998 1.8193822938 -4.6232556019 
S 1.5756321638 0.9096773839 -7.6014065489 
S 1.5756326175 0.9096785128 -10.7330757790 
S 0.0000189190 1.8193860094 -1.4877129945 
Mo 0.0006468870 1.8201281968 3.0554453242 
Mo 1.5756615536 0.9112814507 9.1671897572 
S -0.0031951776 1.8266612992 7.6027671848 
S 1.5756603505 0.9097849901 4.6242445637 
S 1.5756583591 0.9094760678 1.4877966080 
S -0.0065219846 1.8032870461 10.7414693348 
Mo -1.5756053507 4.5484193819 -9.1672481230 
Mo 0.0000378379 3.6387394919 -3.0554952701 
S -1.5755913433 4.5484363582 -4.6232494962 
S 0.0000148214 3.6387329039 -7.6014065489 
S 0.0000152751 3.6387340328 -10.7330757790 
S -1.5755906502 4.5484413613 -1.4877305502 
Mo -1.5746168589 4.5485752425 3.0554431252 
Mo 0.0075280485 3.6430725491 9.1771738865 
S -1.5708956995 4.5420036492 7.6027681340 
S 0.0005475500 3.6390331025 4.6245862139 
S 0.0007781488 3.6391652960 1.4869576105 
S -1.5927995015 4.5508145258 10.7414690540 
Mo -3.1512226931 7.2774749019 -9.1672481230 
Mo -1.5755910988 6.3678216792 -3.0555115988 
S -3.1512162438 7.2774954350 -4.6232578178 
S -1.5756025210 6.3677884239 -7.6014065489 
S -1.5756020673 6.3677895528 -10.7330757790 
S -3.1512127704 7.2774877076 -1.4877200710 
Mo -3.1515461631 7.2776867563 3.0556764632 
Mo -1.5741911486 6.3670277783 9.1671880353 
S -3.1482485413 7.2758044120 7.5967253747 
S -1.5754877891 6.3677471776 4.6242435546 
S -1.5757578260 6.3678995334 1.4877928291 
S -3.1510406818 7.2774168953 10.7353985512 
Mo -4.7268400355 10.0065304219 -9.1672481230 
Mo -3.1512405618 9.0968403586 -3.0554816746 
S -4.7268341792 10.0065523623 -4.6232463762 
S -3.1512198634 9.0968439439 -7.6014065489 
S -3.1512194097 9.0968450728 -10.7330757790 
S -4.7268370797 10.0065537885 -1.4877176751 
Mo -4.7268103951 10.0061288789 3.0556769084 
Mo -3.1514823178 9.0966951006 9.1657500656 
S -4.7268032512 10.0099435816 7.5967280723 
S -3.1512467161 9.0968192771 4.6235223976 
S -3.1511535516 9.0968745650 1.4875344322 
S -4.7268040226 10.0067164954 10.7353972050 
Mo 3.1512517547 1.8193638619 -9.1672481230 
Mo 4.7269020221 0.9097289540 -3.0554823951 
S 3.1512612351 1.8193882564 -4.6232320683 
S 4.7268719268 0.9096773839 -7.6014065489 
S 4.7268723805 0.9096785128 -10.7330757790 
S 3.1512592485 1.8193890201 -1.4877261251 
Mo 3.1506735993 1.8201290458 3.0554421220 
Mo 4.7359468195 0.9048171811 9.1675470492 
S 3.1545224242 1.8266503249 7.6027622048 
S 4.7265759404 0.9100064029 4.6228064177 
S 4.7267562279 0.9100627436 1.4878454123 
S 3.1578452347 1.8032919772 10.7414708692 
Mo 1.5756344123 4.5484193819 -9.1672481230 
Mo 3.1512756394 3.6387769522 -3.0554814834 
S 1.5756504879 4.5484423799 -4.6232390542 
S 3.1512545844 3.6387329039 -7.6014065489 
S 3.1512550381 3.6387340328 -10.7330757790 
S 1.5756466253 4.5484431864 -1.4877251801 
Mo 1.5756626495 4.5484253075 3.0564494465 
Mo 3.1438203030 3.6430710286 9.1771730759 
S 1.5756773764 4.5484360668 7.5828804960 
S 3.1507791459 3.6390344454 4.6245818153 
S 3.1505452044 3.6391661058 1.4869566268 
S 1.5757033765 4.5483995119 10.7068910827 
Mo 0.0000170699 7.2774749019 -9.1672481230 
Mo 1.5756764447 6.3678236689 -3.0554877708 
S 0.0000381981 7.2774979204 -4.6232454413 
S 1.5756372420 6.3677884239 -7.6014065489 
S 1.5756376957 6.3677895528 -10.7330757790 
S 0.0000328088 7.2774946042 -1.4877307940 
Mo 0.0003977339 7.2765768876 3.0554404094 
Mo 1.5756753220 6.3591793081 9.1771750009 
S 0.0079752598 7.2766763420 7.6027712808 
S 1.5756671744 6.3672141391 4.6245794019 
S 1.5756653900 6.3669440204 1.4869577414 
S -0.0106137970 7.2912468201 10.7414687975 
Mo -1.5756002725 10.0065304219 -9.1672481230 
Mo 0.0000873425 9.0968676911 -3.0554912329 
S -1.5755883952 10.0065504530 -4.6232240150 
S 0.0000198996 9.0968439439 -7.6014065489 
S 0.0000203533 9.0968450728 -10.7330757790 
S -1.5755859047 10.0065492576 -1.4877362381 
Mo -1.5756086646 10.0065149980 3.0557333346 
Mo 0.0003424099 9.1071527676 9.1675451121 
S -1.5758860369 10.0063771949 7.5950862017 
S 0.0001638445 9.0964098146 4.6228027925 
S 0.0003023609 9.0965403624 1.4878448789 
S -1.5777663497 10.0052878549 10.7387312158 
Mo 6.3024915177 1.8193638619 -9.1672481230 
Mo 7.8781001445 0.9096521684 -3.0554919963 
S 6.3025008696 1.8193826232 -4.6232480596 
S 7.8781116898 0.9096773839 -7.6014065489 
S 7.8781121435 0.9096785128 -10.7330757790 
S 6.3025042007 1.8193849068 -1.4877147524 
Mo 6.3028493000 1.8191832787 3.0557238246 
Mo 7.8781446499 0.9097064512 9.1666288364 
S 6.3048667068 1.8180396892 7.5958902880 
S 7.8781385915 0.9096854551 4.6246404247 
S 7.8781400905 0.9096874145 1.4871831718 
S 6.3073669700 1.8165955819 10.7384950611 
Mo 4.7268741753 4.5484193819 -9.1672481230 
Mo 6.3024679138 3.6387501714 -3.0554895197 
S 4.7268748770 4.5484386753 -4.6232519432 
S 6.3024943474 3.6387329039 -7.6014065489 
S 6.3024948011 3.6387340328 -10.7330757790 
S 4.7268770533 4.5484432419 -1.4877137856 
Mo 4.7259428053 4.5485748224 3.0554391314 
Mo 6.3112765443 3.6333727156 9.1675485393 
S 4.7222405813 4.5420138267 7.6027640560 
S 6.3020816417 3.6388644778 4.6228057067 
S 6.3021251661 3.6386786770 1.4878446650 
S 4.7441308196 4.5508177377 10.7414686084 
Mo 3.1512568329 7.2774749019 -9.1672481230 
Mo 4.7268384135 6.3678043337 -3.0554959052 
S 3.1512606125 7.2774972547 -4.6232589675 
S 4.7268770050 6.3677884239 -7.6014065489 
S 4.7268774587 6.3677895528 -10.7330757790 
S 3.1512629079 7.2774963749 -1.4877081835 
Mo 3.1509341490 7.2765777407 3.0554395302 
Mo 4.7255379322 6.3670344039 9.1671868672 
S 3.1433690203 7.2766754659 7.6027719615 
S 4.7268174053 6.3677461391 4.6242421070 
S 4.7270865973 6.3679002999 1.4877906935 
S 3.1619568945 7.2912491702 10.7414669062 
Mo 1.5756394905 10.0065304219 -9.1672481230 
Mo 3.1512330605 9.0968514907 -3.0554878870 
S 1.5756499830 10.0065443759 -4.6232632674 
S 3.1512596626 9.0968439439 -7.6014065489 
S 3.1512601163 9.0968450728 -10.7330757790 
S 1.5756503041 10.0065459699 -1.4877044377 
Mo 1.5756710626 10.0069154846 3.0557221702 
Mo 3.1510163619 9.1071564800 9.1675424062 
S 1.5756774351 10.0092661543 7.5958908856 
S 3.1511737440 9.0964084924 4.6228035171 
S 3.1510360734 9.0965398876 1.4878441390 
S 1.5756790385 10.0121486806 10.7384859665 
Mo 9.4537312807 1.8193638619 -9.1672481230 
Mo 11.0293863460 0.9096952246 -3.0554894007 
S 9.4537395970 1.8193770750 -4.6232328036 
S 11.0293514528 0.9096773839 -7.6014065489 
S 11.0293519066 0.9096785128 -10.7330757790 
S 9.4537393632 1.8193794783 -1.4877366147 
Mo 9.4534322423 1.8191822030 3.0557261698 
Mo 11.0203403826 0.9048049976 9.1675440530 
S 9.4514250290 1.8180374439 7.5958900536 
S 11.0297041751 0.9100046674 4.6228077441 
S 11.0295233748 0.9100622948 1.4878474720 
S 9.4489280129 1.8165933540 10.7384904189 
Mo 7.8781139383 4.5484193819 -9.1672481230 
Mo 9.4537539161 3.6387607911 -3.0554933032 
S 7.8781175448 4.5484378232 -4.6232366318 
S 9.4537341104 3.6387329039 -7.6014065489 
S 9.4537345641 3.6387340328 -10.7330757790 
S 7.8781194018 4.5484411585 -1.4877377057 
Mo 7.8781426688 4.5484713908 3.0557331350 
Mo 9.4450158568 3.6333702756 9.1675480256 
S 7.8781471248 4.5488118666 7.5950925456 
S 9.4542015389 3.6388651884 4.6228074356 
S 9.4541602733 3.6386781385 1.4878460403 
S 7.8781494596 4.5509857059 10.7387262890 
Mo 6.3024965959 7.2774749019 -9.1672481230 
Mo 7.8781361655 6.3678242352 -3.0555014130 
S 6.3024973331 7.2774953556 -4.6232392528 
S 7.8781167680 6.3677884239 -7.6014065489 
S 7.8781172217 6.3677895528 -10.7330757790 
S 6.3024989866 7.2774929744 -1.4877349119 
Mo 6.3028775164 7.2776866815 3.0556750485 
Mo 7.8781532281 6.3681649133 9.1657493189 
S 6.2995974858 7.2758058256 7.5967266557 
S 7.8781440009 6.3678621147 4.6235189992 
S 7.8781445650 6.3677537111 1.4875368307 
S 6.3023916609 7.2774203901 10.7353971279 
Mo 4.7268792535 10.0065304219 -9.1672481230 
Mo 6.3025111524 9.0968738021 -3.0554915260 
S 4.7268840634 10.0065452125 -4.6232380477 
S 6.3024994256 9.0968439439 -7.6014065489 
S 6.3024998793 9.0968450728 -10.7330757790 
S 4.7268847312 10.0065459141 -1.4877283294 
Mo 4.7269460718 10.0065149659 3.0557352019 
Mo 6.3028316436 9.0966972997 9.1657494429 
S 4.7272406242 10.0063726340 7.5950781138 
S 6.3025844341 9.0968178915 4.6235198676 
S 6.3024911066 9.0968742482 1.4875357895 
S 4.7291214916 10.0052856862 10.7387378381 
H 1.5760170772 4.5479797654 12.1092893686 

