SystemName	siesta
SystemLabel	siesta

DM.MixingWeight	0.1
MD.Final.Time.Step	200000
MD.Initial-temperature	343.0 K
MD.Initial.Time.Step	1
MD.Length.Time.Step	0.5 fs
MD.Target-pressure	0.0 GPa
MD.Target-temperature	343.0 K
MD.TypeOfRun	NoseParrinelloRahman
MD.UseSaveXV	True
MaxSCFIterations	2000
SolutionMethod	diagon
WriteCoorCerius	True
WriteCoorStep	True
WriteCoorXmol	True
WriteForces	True
WriteMDHistory	True
WriteMDXmol	True
SCFMustConverge	True

Spin     	non-polarized
XC.functional	VDW
XC.authors	DRSLL

MeshCutoff	1360.5693012183622	eV
PAO.EnergyShift	0.1	eV

NumberOfSpecies	7
NumberOfAtoms	434
%block ChemicalSpecieslabel
    1 42 Mo.vdw.1
    2 16 S.vdw.2
    3 17 Cl.vdw.3
    4 46 Pd.vdw.4
    5 8 O.vdw.5
    6 1 H.vdw.6
    7 6 C.vdw.7
%endblock ChemicalSpecieslabel

%block PAO.BasisSizes
    Mo.vdw.1	DZP
    S.vdw.2	DZP
    Cl.vdw.3	DZP
    Pd.vdw.4	DZP
    O.vdw.5	DZP
    H.vdw.6	DZP
    C.vdw.7	DZP
%endblock PAO.BasisSizes


LatticeConstant	1.0 Ang
%block LatticeVectors
    15.961200000000000     0.000000000000000     0.000000000000000 
    0.000000000000000     16.587365609999999     0.000000000000000 
    0.000000000000000     0.000000000000000     24.817499999999999 
%endblock LatticeVectors


AtomicCoordinatesFormat  Ang
%block AtomicCoordinatesAndAtomicSpecies
     3.192224000      1.843050000     15.753404000 1
     1.596104000      4.607611000     15.753404000 1
     1.596136000      0.921511000      9.064096000 1
     0.000016000      3.686072000      9.064096000 1
     3.192224000      1.843050000      7.500097000 2
     1.596104000      4.607611000      7.500097000 2
     1.596136000      0.921511000     17.317403000 2
     0.000016000      3.686072000     17.317403000 2
     1.596136000      0.921511000     14.189157000 2
     0.000016000      3.686072000     14.189157000 2
     3.192224000      1.843050000     10.628343000 2
     1.596104000      4.607611000     10.628343000 2
     3.192224000      7.372172000     15.753404000 1
     1.596104000     10.136733000     15.753404000 1
     1.596136000      6.450633000      9.064096000 1
     0.000016000      9.215194000      9.064096000 1
     3.192224000      7.372172000      7.500097000 2
     1.596104000     10.136733000      7.500097000 2
     1.596136000      6.450633000     17.317403000 2
     0.000016000      9.215194000     17.317403000 2
     1.596136000      6.450633000     14.189157000 2
     0.000016000      9.215194000     14.189157000 2
     3.192224000      7.372172000     10.628343000 2
     1.596104000     10.136733000     10.628343000 2
     3.192224000     12.901294000     15.753404000 1
     1.596104000     15.665855000     15.753404000 1
     1.596136000     11.979755000      9.064096000 1
     0.000016000     14.744316000      9.064096000 1
     3.192224000     12.901294000      7.500097000 2
     1.596104000     15.665855000      7.500097000 2
     1.596136000     11.979755000     17.317403000 2
     0.000016000     14.744316000     17.317403000 2
     1.596136000     11.979755000     14.189157000 2
     0.000016000     14.744316000     14.189157000 2
     3.192224000     12.901294000     10.628343000 2
     1.596104000     15.665855000     10.628343000 2
     6.384464000      1.843050000     15.753404000 1
     4.788344000      4.607611000     15.753404000 1
     4.788376000      0.921511000      9.064096000 1
     3.192256000      3.686072000      9.064096000 1
     6.384464000      1.843050000      7.500097000 2
     4.788344000      4.607611000      7.500097000 2
     4.788376000      0.921511000     17.317403000 2
     3.192256000      3.686072000     17.317403000 2
     4.788376000      0.921511000     14.189157000 2
     3.192256000      3.686072000     14.189157000 2
     6.384464000      1.843050000     10.628343000 2
     4.788344000      4.607611000     10.628343000 2
     6.384464000      7.372172000     15.753404000 1
     4.788344000     10.136733000     15.753404000 1
     4.788376000      6.450633000      9.064096000 1
     3.192256000      9.215194000      9.064096000 1
     6.384464000      7.372172000      7.500097000 2
     4.788344000     10.136733000      7.500097000 2
     4.788376000      6.450633000     17.317403000 2
     3.192256000      9.215194000     17.317403000 2
     4.788376000      6.450633000     14.189157000 2
     3.192256000      9.215194000     14.189157000 2
     6.384464000      7.372172000     10.628343000 2
     4.788344000     10.136733000     10.628343000 2
     6.384464000     12.901294000     15.753404000 1
     4.788344000     15.665855000     15.753404000 1
     4.788376000     11.979755000      9.064096000 1
     3.192256000     14.744316000      9.064096000 1
     6.384464000     12.901294000      7.500097000 2
     4.788344000     15.665855000      7.500097000 2
     4.788376000     11.979755000     17.317403000 2
     3.192256000     14.744316000     17.317403000 2
     4.788376000     11.979755000     14.189157000 2
     3.192256000     14.744316000     14.189157000 2
     6.384464000     12.901294000     10.628343000 2
     4.788344000     15.665855000     10.628343000 2
     9.576704000      1.843050000     15.753404000 1
     7.980584000      4.607611000     15.753404000 1
     7.980616000      0.921511000      9.064096000 1
     6.384496000      3.686072000      9.064096000 1
     9.576704000      1.843050000      7.500097000 2
     7.980584000      4.607611000      7.500097000 2
     7.980616000      0.921511000     17.317403000 2
     6.384496000      3.686072000     17.317403000 2
     7.980616000      0.921511000     14.189157000 2
     6.384496000      3.686072000     14.189157000 2
     9.576704000      1.843050000     10.628343000 2
     7.980584000      4.607611000     10.628343000 2
     9.576704000      7.372172000     15.753404000 1
     7.980584000     10.136733000     15.753404000 1
     7.980616000      6.450633000      9.064096000 1
     6.384496000      9.215194000      9.064096000 1
     9.576704000      7.372172000      7.500097000 2
     7.980584000     10.136733000      7.500097000 2
     7.980616000      6.450633000     17.317403000 2
     6.384496000      9.215194000     17.317403000 2
     7.980616000      6.450633000     14.189157000 2
     6.384496000      9.215194000     14.189157000 2
     9.576704000      7.372172000     10.628343000 2
     7.980584000     10.136733000     10.628343000 2
     9.576704000     12.901294000     15.753404000 1
     7.980584000     15.665855000     15.753404000 1
     7.980616000     11.979755000      9.064096000 1
     6.384496000     14.744316000      9.064096000 1
     9.576704000     12.901294000      7.500097000 2
     7.980584000     15.665855000      7.500097000 2
     7.980616000     11.979755000     17.317403000 2
     6.384496000     14.744316000     17.317403000 2
     7.980616000     11.979755000     14.189157000 2
     6.384496000     14.744316000     14.189157000 2
     9.576704000     12.901294000     10.628343000 2
     7.980584000     15.665855000     10.628343000 2
    12.768944000      1.843050000     15.753404000 1
    11.172824000      4.607611000     15.753404000 1
    11.172856000      0.921511000      9.064096000 1
     9.576736000      3.686072000      9.064096000 1
    12.768944000      1.843050000      7.500097000 2
    11.172824000      4.607611000      7.500097000 2
    11.172856000      0.921511000     17.317403000 2
     9.576736000      3.686072000     17.317403000 2
    11.172856000      0.921511000     14.189157000 2
     9.576736000      3.686072000     14.189157000 2
    12.768944000      1.843050000     10.628343000 2
    11.172824000      4.607611000     10.628343000 2
    12.768944000      7.372172000     15.753404000 1
    11.172824000     10.136733000     15.753404000 1
    11.172856000      6.450633000      9.064096000 1
     9.576736000      9.215194000      9.064096000 1
    12.768944000      7.372172000      7.500097000 2
    11.172824000     10.136733000      7.500097000 2
    11.172856000      6.450633000     17.317403000 2
     9.576736000      9.215194000     17.317403000 2
    11.172856000      6.450633000     14.189157000 2
     9.576736000      9.215194000     14.189157000 2
    12.768944000      7.372172000     10.628343000 2
    11.172824000     10.136733000     10.628343000 2
    12.768944000     12.901294000     15.753404000 1
    11.172824000     15.665855000     15.753404000 1
    11.172856000     11.979755000      9.064096000 1
     9.576736000     14.744316000      9.064096000 1
    12.768944000     12.901294000      7.500097000 2
    11.172824000     15.665855000      7.500097000 2
    11.172856000     11.979755000     17.317403000 2
     9.576736000     14.744316000     17.317403000 2
    11.172856000     11.979755000     14.189157000 2
     9.576736000     14.744316000     14.189157000 2
    12.768944000     12.901294000     10.628343000 2
    11.172824000     15.665855000     10.628343000 2
    -0.000016000      1.843050000     15.753404000 1
    14.365064000      4.607611000     15.753404000 1
    14.365096000      0.921511000      9.064096000 1
    12.768976000      3.686072000      9.064096000 1
    -0.000016000      1.843050000      7.500097000 2
    14.365064000      4.607611000      7.500097000 2
    14.365096000      0.921511000     17.317403000 2
    12.768976000      3.686072000     17.317403000 2
    14.365096000      0.921511000     14.189157000 2
    12.768976000      3.686072000     14.189157000 2
    -0.000016000      1.843050000     10.628343000 2
    14.365064000      4.607611000     10.628343000 2
    -0.000016000      7.372172000     15.753404000 1
    14.365064000     10.136733000     15.753404000 1
    14.365096000      6.450633000      9.064096000 1
    12.768976000      9.215194000      9.064096000 1
    -0.000016000      7.372172000      7.500097000 2
    14.365064000     10.136733000      7.500097000 2
    14.365096000      6.450633000     17.317403000 2
    12.768976000      9.215194000     17.317403000 2
    14.365096000      6.450633000     14.189157000 2
    12.768976000      9.215194000     14.189157000 2
    -0.000016000      7.372172000     10.628343000 2
    14.365064000     10.136733000     10.628343000 2
    -0.000016000     12.901294000     15.753404000 1
    14.365064000     15.665855000     15.753404000 1
    14.365096000     11.979755000      9.064096000 1
    12.768976000     14.744316000      9.064096000 1
    -0.000016000     12.901294000      7.500097000 2
    14.365064000     15.665855000      7.500097000 2
    14.365096000     11.979755000     17.317403000 2
    12.768976000     14.744316000     17.317403000 2
    14.365096000     11.979755000     14.189157000 2
    12.768976000     14.744316000     14.189157000 2
    -0.000016000     12.901294000     10.628343000 2
    14.365064000     15.665855000     10.628343000 2
    14.783073000      2.820656000     19.796730000 3
    13.543885000      1.847553000     21.387328000 4
    12.056635000      2.896313000     22.031118000 3
     5.790742000      6.856172000     21.323425000 5
     5.894409000      7.823671000     21.502262000 6
     4.855223000      6.567876000     21.271722000 6
     9.026920000     12.501303000     24.208925000 5
     9.928140000     12.126263000     24.047898000 6
     8.331064000     11.816894000     24.300316000 6
     8.824398000      1.533765000     22.268211000 5
     9.541481000      1.061638000     21.776608000 6
     9.154612000      2.266075000     22.830051000 6
    12.004285000     11.324305000     20.799984000 5
    12.921673000     11.503422000     20.475794000 6
    11.879795000     10.409846000     21.130515000 6
     2.920259000      0.984907000     23.704685000 5
     2.076420000      0.503146000     23.518603000 6
     3.515377000      0.504988000     24.318277000 6
     8.320198000     16.084576000     24.105801000 5
     7.364525000     15.838677000     24.176564000 6
     8.928946000     15.344987000     24.314167000 6
     1.042393000      7.347863000     20.714148000 5
     0.504525000      6.517666000     20.730086000 6
     0.501342000      8.163406000     20.770144000 6
    12.316091000      0.431739000     22.599934000 5
    11.713776000      0.730533000     21.874177000 6
    12.502709000      1.129296000     23.262936000 6
    12.366387000      4.391772000     23.614715000 5
    11.688558000      4.261196000     24.323432000 6
    12.056236000      4.961267000     22.879552000 6
    14.536636000      7.678594000     24.314475000 5
    15.316178000      8.287759000     24.318569000 6
    13.675958000      8.147785000     24.305765000 6
    13.314531000      8.547497000     20.350247000 7
    13.316720000      8.252580000     21.827097000 7
    14.458834000      8.838883000     22.370156000 5
    13.933595000      7.756316000     19.852640000 6
    13.857607000      9.513245000     20.177333000 6
    12.279684000      8.577561000     19.983542000 6
    13.325804000      7.158025000     22.036857000 6
    12.436845000      8.664274000     22.351330000 6
    15.035706000      9.262008000     21.670638000 6
     8.258717000     13.180550000     20.698293000 7
     9.424882000     12.238730000     20.553033000 7
     8.920943000     11.008996000     20.132451000 5
     7.832944000     13.026287000     21.723836000 6
     7.453779000     12.866402000     19.983530000 6
     8.595348000     14.211223000     20.523141000 6
     9.978642000     12.104972000     21.510942000 6
    10.165336000     12.579304000     19.808566000 6
     7.921816000     11.008212000     20.078739000 6
    13.171895000     11.830270000     23.313153000 7
    14.543883000     12.450829000     23.288215000 7
    15.466879000     11.438310000     23.545067000 5
    12.832149000     11.818288000     24.381446000 6
    13.260095000     10.754490000     23.009152000 6
    12.500416000     12.397732000     22.654831000 6
    14.654561000     13.256185000     24.050636000 6
    14.794922000     12.905515000     22.314185000 6
    15.023291000     10.563093000     23.740934000 6
    14.901244000      3.127721000     22.932168000 7
    14.693880000      4.258023000     21.958780000 7
    14.658146000      5.442461000     22.692891000 5
    13.891273000      2.833968000     23.320096000 6
    15.466666000      3.517878000     23.818495000 6
    15.425678000      2.303176000     22.430792000 6
    13.745257000      4.148735000     21.384061000 6
    15.503670000      4.340307000     21.213150000 6
    14.717475000      5.278564000     23.678162000 6
     2.060399000      7.360561000     23.312506000 7
     3.533743000      7.652061000     23.423641000 7
     3.910425000      8.351596000     22.278281000 5
     1.952790000      6.413502000     22.722320000 6
     1.582691000      8.162808000     22.691463000 6
     1.622856000      7.292803000     24.317618000 6
     4.141017000      6.721220000     23.506626000 6
     3.786930000      8.270143000     24.302484000 6
     3.154771000      8.450355000     21.629919000 6
     8.952518000      4.816415000     22.903259000 7
     8.425936000      4.983862000     21.502282000 7
     9.524744000      5.086908000     20.650759000 5
     9.146803000      5.842898000     23.309960000 6
     9.953891000      4.314335000     22.851593000 6
     8.228863000      4.246768000     23.501683000 6
     7.789436000      5.892847000     21.398619000 6
     7.810395000      4.131057000     21.167130000 6
    10.391666000      5.085766000     21.150345000 6
     5.364817000     13.424633000     23.403068000 7
     5.090999000     13.088951000     21.960707000 7
     5.780303000     14.012874000     21.176926000 5
     4.623036000     14.207794000     23.708418000 6
     6.371171000     13.914576000     23.471685000 6
     5.301116000     12.511976000     24.010756000 6
     4.004164000     13.133838000     21.717995000 6
     5.432719000     12.077564000     21.679960000 6
     6.241919000     14.707669000     21.729475000 6
     8.017994000      8.506736000     22.373825000 7
     9.396824000      8.985293000     22.745139000 7
     9.381439000     10.378647000     22.707491000 5
     7.973991000      8.456592000     21.254732000 6
     7.274302000      9.290751000     22.673397000 6
     7.823284000      7.539078000     22.855499000 6
    10.176362000      8.603637000     22.046002000 6
     9.704725000      8.672391000     23.757949000 6
     8.501798000     10.738751000     22.394926000 6
     3.559514000      2.689923000     22.321787000 7
     4.006316000      3.787672000     21.392605000 7
     3.519473000      3.485572000     20.121854000 5
     4.315565000      1.865316000     22.249464000 6
     2.600360000      2.259257000     21.931851000 6
     3.455748000      3.089994000     23.339363000 6
     5.116408000      3.878528000     21.352916000 6
     3.621226000      4.781234000     21.680761000 6
     3.046077000      2.604399000     20.097946000 6
    11.525969000     14.684773000     21.951128000 7
    12.947728000     14.642914000     21.456240000 7
    13.090105000     15.650693000     20.503771000 5
    10.909141000     14.074312000     21.241424000 6
    11.145809000     15.735738000     21.859201000 6
    11.485872000     14.313836000     22.984125000 6
    13.204162000     13.659953000     20.997806000 6
    13.688827000     14.818275000     22.255312000 6
    12.227761000     16.124979000     20.323340000 6
    11.213215000      6.665471000     19.819162000 3
     2.331708000     14.056375000     19.817403000 3
     4.072140000     16.083650000     22.167511000 6
    12.461658000     16.090286000     23.789315000 6
     0.629294000     15.153649000      1.174130000 3
     2.610370000     14.351319000      0.507702000 4
     4.123835000     15.497868000      0.855731000 3
     8.020457000     13.877490000      0.504239000 5
     7.063413000     14.069238000      0.665741000 6
     8.596687000     14.664834000      0.599285000 6
     8.643463000      3.975042000      3.793992000 5
     8.190482000      3.129739000      4.037002000 6
     8.385821000      4.315010000      2.911367000 6
     0.468295000      3.847886000      0.425361000 5
     0.445847000      2.991612000      0.920410000 6
     0.498380000      4.634593000      1.009459000 6
    12.287473000      3.865736000      0.647211000 5
    13.121916000      4.058747000      1.142423000 6
    11.743150000      4.662840000      0.475975000 6
    15.432672000      2.828288000      1.323239000 5
    15.441736000      3.700347000      1.790374000 6
    14.552071000      2.397575000      1.319885000 6
    14.917855000      6.808267000      2.369795000 5
    15.455756000      7.235488000      1.657807000 6
    15.455282000      6.293495000      3.007891000 6
    10.490344000     13.912202000      3.619784000 5
    11.226781000     14.515503000      3.350577000 6
    10.784437000     12.994105000      3.797521000 6
    10.779999000      6.281505000      1.987940000 5
    10.959629000      5.398044000      2.395386000 6
     9.831092000      6.527507000      1.994394000 6
     5.703723000      9.315892000      0.671145000 5
     4.926210000      9.902884000      0.843472000 6
     5.457191000      8.381445000      0.506783000 6
    11.828159000     13.552677000      0.549879000 5
    12.689531000     13.964873000      0.808562000 6
    11.864124000     12.574300000      0.500201000 6
     9.158669000     11.565031000      1.546573000 7
     7.826272000     10.871161000      1.440145000 7
     8.065324000      9.498085000      1.464733000 5
     9.578277000     11.639224000      0.509633000 6
     9.863108000     10.902120000      2.113861000 6
     9.025546000     12.543441000      2.027487000 6
     7.287790000     11.137458000      0.501393000 6
     7.143791000     11.115989000      2.272475000 6
     9.042627000      9.284797000      1.487706000 6
     3.561548000     15.597084000      3.958632000 7
     3.748830000     14.105961000      4.056329000 7
     2.484237000     13.520918000      4.016117000 5
     3.374174000     15.977011000      4.996594000 6
     2.620696000     15.802745000      3.384174000 6
     4.446006000     16.048054000      3.488905000 6
     4.265778000     13.808323000      4.997769000 6
     4.346256000     13.690127000      3.226475000 6
     1.752666000     14.203066000      3.991255000 6
     7.363204000      2.416822000      1.190912000 7
     7.376740000      0.910917000      1.179375000 7
     6.088312000      0.482331000      0.864167000 5
     7.027707000      2.738151000      2.211211000 6
     6.569947000      2.773036000      0.482849000 6
     8.360161000      2.794824000      0.927328000 6
     7.678705000      0.486000000      2.164462000 6
     8.071198000      0.490676000      0.431298000 6
     5.447004000      1.245288000      0.776076000 6
     5.470749000      1.197010000      4.006571000 7
     5.292628000      2.649120000      4.363943000 7
     4.059573000      2.775900000      5.001586000 5
     4.965353000      1.033516000      3.019321000 6
     4.903264000      0.574124000      4.746486000 6
     6.541317000      0.952481000      3.987190000 6
     5.315638000      3.308625000      3.465802000 6
     6.073325000      3.024765000      5.047973000 6
     3.556442000      1.911407000      5.027093000 6
    14.285287000      9.763672000      2.763419000 7
    14.268683000      8.913083000      4.006112000 7
    13.576419000      9.619308000      4.988510000 5
    15.158718000     10.461130000      2.849964000 6
    13.373069000     10.415867000      2.763909000 6
    14.337453000      9.117336000      1.876958000 6
    15.296211000      8.681174000      4.370167000 6
    13.762507000      7.943182000      3.859239000 6
    13.303722000     10.530487000      4.677818000 6
     3.273509000      4.494409000      2.024078000 7
     2.694595000      3.124600000      2.261873000 7
     1.445220000      3.294697000      2.856194000 5
     3.787694000      4.806500000      2.970140000 6
     2.430114000      5.219646000      1.881892000 6
     3.948597000      4.462297000      1.158335000 6
     3.340438000      2.505154000      2.926182000 6
     2.556706000      2.546264000      1.331816000 6
     1.242140000      4.256910000      3.040708000 6
    11.735719000      3.220320000      3.772288000 7
    13.182155000      3.512112000      4.073529000 7
    13.314596000      4.894394000      4.195363000 5
    11.602605000      3.311282000      2.662862000 6
    11.105696000      4.031415000      4.222505000 6
    11.474357000      2.225140000      4.156464000 6
    13.861159000      3.143506000      3.270276000 6
    13.529670000      3.049537000      5.013610000 6
    12.458021000      5.374657000      4.003615000 6
     2.166752000     11.679578000      1.222163000 7
     1.213707000     11.203095000      2.286462000 7
     0.501804000     10.126300000      1.760348000 5
     1.603898000     12.396006000      0.568904000 6
     2.431962000     10.810987000      0.564354000 6
     3.049050000     12.131344000      1.695177000 6
     0.501700000     12.000954000      2.600470000 6
     1.725166000     10.861747000      3.203188000 6
     0.733119000      9.951834000      0.802645000 6
     7.008810000      6.981052000      2.592898000 7
     7.508273000      7.940948000      3.640372000 7
     7.100314000      7.456263000      4.882040000 5
     5.957762000      7.280083000      2.342502000 6
     6.934611000      5.959633000      3.049733000 6
     7.680656000      7.003489000      1.724334000 6
     7.106116000      8.969893000      3.493149000 6
     8.608159000      8.033694000      3.652300000 6
     6.533899000      6.635536000      4.800042000 6
     4.288907000      9.264907000      4.302634000 7
     3.467813000      8.605225000      3.226210000 7
     2.169828000      8.465828000      3.714976000 5
     4.653990000      8.454307000      4.985614000 6
     3.612788000      9.906992000      4.925603000 6
     5.104349000      9.838882000      3.842317000 6
     3.868721000      7.603635000      2.946527000 6
     3.422493000      9.195366000      2.294452000 6
     2.088314000      8.771828000      4.664112000 6
    10.584347000      6.021068000      5.002108000 3
    14.117546000      0.929714000      4.988690000 3
    15.476822000      4.072418000      4.957391000 6
    15.461424000     10.813813000      5.000280000 6
%endblock AtomicCoordinatesAndAtomicSpecies

%block DM.InitSpin
%endblock DM.InitSpin

DM.UseSaveDM	True

#KPoint grid
%block kgrid_Monkhorst_Pack
     1       0       0  0.0
     0       1       0  0.0
     0       0       1  0.0
%endblock kgrid_Monkhorst_Pack

