SystemName	siesta
SystemLabel	siesta

%block ExternalElectricField
0.0 0.0 0.0 V/Ang
%endblock ExternalElectricField
MaxSCFIterations	2000
%block SCF.Mixer.broyden
method	broyden
weight	0.01
weight.linear	0.005
%endblock SCF.Mixer.broyden
%block SCF.Mixers
broyden
%endblock SCF.Mixers
SCFMustConverge	False
SolutionMethod	diagon
WriteCoorCerius	True
WriteCoorStep	True
WriteCoorXmol	True
WriteForces	True
WriteMDHistory	True
WriteMDXmol	True

Spin     	non-polarized
XC.functional	VDW
XC.authors	DRSLL

MeshCutoff	1360.5693012183622	eV
PAO.EnergyShift	0.1	eV

NumberOfSpecies	7
NumberOfAtoms	434
%block ChemicalSpecieslabel
    1 42 Mo.vdw.1
    2 16 S.vdw.2
    3 17 Cl.vdw.3
    4 46 Pd.vdw.4
    5 8 O.vdw.5
    6 1 H.vdw.6
    7 6 C.vdw.7
%endblock ChemicalSpecieslabel

%block PAO.BasisSizes
    Mo.vdw.1	DZP
    S.vdw.2	DZP
    Cl.vdw.3	DZP
    Pd.vdw.4	DZP
    O.vdw.5	DZP
    H.vdw.6	DZP
    C.vdw.7	DZP
%endblock PAO.BasisSizes


LatticeConstant	1.0 Ang
%block LatticeVectors
    15.921500000000000     0.000000000000000     0.000000000000000 
    0.000000000000000     16.546108170000000     0.000000000000000 
    0.000000000000000     0.000000000000000     31.068500000000000 
%endblock LatticeVectors


AtomicCoordinatesFormat  Ang
%block AtomicCoordinatesAndAtomicSpecies
     1.592166000      0.919219000      9.052118000 1
     0.000016000      3.676904000      9.052118000 1
     0.000000000      0.000000000      7.499936000 2
     1.592150000      2.757685000      7.499936000 2
     0.000000000      0.000000000     10.604300000 2
     1.592150000      2.757685000     10.604300000 2
     1.592150000      8.273054000     22.016382000 1
     1.592166000      6.434588000      9.052118000 1
     0.000016000      9.192273000      9.052118000 1
     1.592134000     10.111520000     15.534250000 1
     0.000000000      5.515369000      7.499936000 2
     1.592150000      8.273054000      7.499936000 2
     0.000016000      9.192273000     13.982068000 2
     1.592134000     10.111520000     20.464200000 2
     0.000000000      5.515369000     10.604300000 2
     1.592150000      8.273054000     10.604300000 2
     0.000016000      9.192273000     17.086432000 2
     1.592134000     10.111520000     23.568564000 2
     0.000000000     11.030739000     22.016382000 1
     1.592150000     13.788423000     22.016382000 1
     1.592166000     11.949958000      9.052118000 1
     0.000016000     14.707643000      9.052118000 1
     3.184284000     12.869204000     15.534250000 1
     1.592134000     15.626889000     15.534250000 1
     0.000000000     11.030739000      7.499936000 2
     1.592150000     13.788423000      7.499936000 2
     1.592166000     11.949958000     13.982068000 2
     0.000016000     14.707643000     13.982068000 2
     3.184284000     12.869204000     20.464200000 2
     1.592134000     15.626889000     20.464200000 2
     0.000000000     11.030739000     10.604300000 2
     1.592150000     13.788423000     10.604300000 2
     1.592166000     11.949958000     17.086432000 2
     0.000016000     14.707643000     17.086432000 2
     3.184284000     12.869204000     23.568564000 2
     1.592134000     15.626889000     23.568564000 2
     4.776466000      0.919219000      9.052118000 1
     3.184316000      3.676904000      9.052118000 1
     3.184300000      0.000000000      7.499936000 2
     4.776450000      2.757685000      7.499936000 2
     3.184300000      0.000000000     10.604300000 2
     4.776450000      2.757685000     10.604300000 2
     4.776450000      8.273054000     22.016382000 1
     4.776466000      6.434588000      9.052118000 1
     3.184316000      9.192273000      9.052118000 1
     4.776434000     10.111520000     15.534250000 1
     3.184300000      5.515369000      7.499936000 2
     4.776450000      8.273054000      7.499936000 2
     3.184316000      9.192273000     13.982068000 2
     4.776434000     10.111520000     20.464200000 2
     3.184300000      5.515369000     10.604300000 2
     4.776450000      8.273054000     10.604300000 2
     3.184316000      9.192273000     17.086432000 2
     4.776434000     10.111520000     23.568564000 2
     3.184300000     11.030739000     22.016382000 1
     4.776450000     13.788423000     22.016382000 1
     4.776466000     11.949958000      9.052118000 1
     3.184316000     14.707643000      9.052118000 1
     6.368584000     12.869204000     15.534250000 1
     4.776434000     15.626889000     15.534250000 1
     3.184300000     11.030739000      7.499936000 2
     4.776450000     13.788423000      7.499936000 2
     4.776466000     11.949958000     13.982068000 2
     3.184316000     14.707643000     13.982068000 2
     6.368584000     12.869204000     20.464200000 2
     4.776434000     15.626889000     20.464200000 2
     3.184300000     11.030739000     10.604300000 2
     4.776450000     13.788423000     10.604300000 2
     4.776466000     11.949958000     17.086432000 2
     3.184316000     14.707643000     17.086432000 2
     6.368584000     12.869204000     23.568564000 2
     4.776434000     15.626889000     23.568564000 2
     7.960766000      0.919219000      9.052118000 1
     6.368616000      3.676904000      9.052118000 1
     6.368600000      0.000000000      7.499936000 2
     7.960750000      2.757685000      7.499936000 2
     6.368600000      0.000000000     10.604300000 2
     7.960750000      2.757685000     10.604300000 2
     7.960750000      8.273054000     22.016382000 1
     7.960766000      6.434588000      9.052118000 1
     6.368616000      9.192273000      9.052118000 1
     7.960734000     10.111520000     15.534250000 1
     6.368600000      5.515369000      7.499936000 2
     7.960750000      8.273054000      7.499936000 2
     6.368616000      9.192273000     13.982068000 2
     7.960734000     10.111520000     20.464200000 2
     6.368600000      5.515369000     10.604300000 2
     7.960750000      8.273054000     10.604300000 2
     6.368616000      9.192273000     17.086432000 2
     7.960734000     10.111520000     23.568564000 2
     6.368600000     11.030739000     22.016382000 1
     7.960750000     13.788423000     22.016382000 1
     7.960766000     11.949958000      9.052118000 1
     6.368616000     14.707643000      9.052118000 1
     9.552884000     12.869204000     15.534250000 1
     7.960734000     15.626889000     15.534250000 1
     6.368600000     11.030739000      7.499936000 2
     7.960750000     13.788423000      7.499936000 2
     7.960766000     11.949958000     13.982068000 2
     6.368616000     14.707643000     13.982068000 2
     9.552884000     12.869204000     20.464200000 2
     7.960734000     15.626889000     20.464200000 2
     6.368600000     11.030739000     10.604300000 2
     7.960750000     13.788423000     10.604300000 2
     7.960766000     11.949958000     17.086432000 2
     6.368616000     14.707643000     17.086432000 2
     9.552884000     12.869204000     23.568564000 2
     7.960734000     15.626889000     23.568564000 2
    11.145066000      0.919219000      9.052118000 1
     9.552916000      3.676904000      9.052118000 1
     9.552900000      0.000000000      7.499936000 2
    11.145050000      2.757685000      7.499936000 2
     9.552900000      0.000000000     10.604300000 2
    11.145050000      2.757685000     10.604300000 2
    11.145050000      8.273054000     22.016382000 1
    11.145066000      6.434588000      9.052118000 1
     9.552916000      9.192273000      9.052118000 1
    11.145034000     10.111520000     15.534250000 1
     9.552900000      5.515369000      7.499936000 2
    11.145050000      8.273054000      7.499936000 2
     9.552916000      9.192273000     13.982068000 2
    11.145034000     10.111520000     20.464200000 2
     9.552900000      5.515369000     10.604300000 2
    11.145050000      8.273054000     10.604300000 2
     9.552916000      9.192273000     17.086432000 2
    11.145034000     10.111520000     23.568564000 2
     9.552900000     11.030739000     22.016382000 1
    11.145050000     13.788423000     22.016382000 1
    11.145066000     11.949958000      9.052118000 1
     9.552916000     14.707643000      9.052118000 1
    12.737184000     12.869204000     15.534250000 1
    11.145034000     15.626889000     15.534250000 1
     9.552900000     11.030739000      7.499936000 2
    11.145050000     13.788423000      7.499936000 2
    11.145066000     11.949958000     13.982068000 2
     9.552916000     14.707643000     13.982068000 2
    12.737184000     12.869204000     20.464200000 2
    11.145034000     15.626889000     20.464200000 2
     9.552900000     11.030739000     10.604300000 2
    11.145050000     13.788423000     10.604300000 2
    11.145066000     11.949958000     17.086432000 2
     9.552916000     14.707643000     17.086432000 2
    12.737184000     12.869204000     23.568564000 2
    11.145034000     15.626889000     23.568564000 2
    14.329366000      0.919219000      9.052118000 1
    12.737216000      3.676904000      9.052118000 1
    12.737200000      0.000000000      7.499936000 2
    14.329350000      2.757685000      7.499936000 2
    12.737200000      0.000000000     10.604300000 2
    14.329350000      2.757685000     10.604300000 2
    14.329350000      8.273054000     22.016382000 1
    14.329366000      6.434588000      9.052118000 1
    12.737216000      9.192273000      9.052118000 1
    14.329334000     10.111520000     15.534250000 1
    12.737200000      5.515369000      7.499936000 2
    14.329350000      8.273054000      7.499936000 2
    12.737216000      9.192273000     13.982068000 2
    14.329334000     10.111520000     20.464200000 2
    12.737200000      5.515369000     10.604300000 2
    14.329350000      8.273054000     10.604300000 2
    12.737216000      9.192273000     17.086432000 2
    14.329334000     10.111520000     23.568564000 2
    12.737200000     11.030739000     22.016382000 1
    14.329350000     13.788423000     22.016382000 1
    14.329366000     11.949958000      9.052118000 1
    12.737216000     14.707643000      9.052118000 1
    -0.000016000     12.869204000     15.534250000 1
    14.329334000     15.626889000     15.534250000 1
    12.737200000     11.030739000      7.499936000 2
    14.329350000     13.788423000      7.499936000 2
    14.329366000     11.949958000     13.982068000 2
    12.737216000     14.707643000     13.982068000 2
    -0.000016000     12.869204000     20.464200000 2
    14.329334000     15.626889000     20.464200000 2
    12.737200000     11.030739000     10.604300000 2
    14.329350000     13.788423000     10.604300000 2
    14.329366000     11.949958000     17.086432000 2
    12.737216000     14.707643000     17.086432000 2
    -0.000016000     12.869204000     23.568564000 2
    14.329334000     15.626889000     23.568564000 2
    15.419866000      0.615234000     26.969696000 3
    14.275786000      2.315057000     26.067366000 4
    14.828372000      4.075065000     26.635956000 3
     6.062420000      7.179590000     27.162552000 5
     5.088746000      7.004265000     27.160463000 6
     6.286196000      8.133853000     27.145530000 6
     1.514486000      9.347654000     26.289989000 5
     1.070177000      9.269023000     27.170438000 6
     2.042156000      8.557644000     26.048264000 6
     4.945552000     11.142767000     29.636500000 5
     4.050993000     11.437422000     29.939363000 6
     5.330760000     11.718261000     28.942666000 6
     1.531527000      5.545538000     29.097878000 5
     2.485543000      5.800901000     29.156410000 6
     1.371638000      4.594404000     29.273274000 6
     3.949411000      3.677988000     27.949172000 5
     4.386968000      4.131986000     27.186798000 6
     4.005940000      2.700336000     27.904624000 6
     7.587031000     14.229648000     30.510920000 5
     7.317410000     15.179730000     30.569504000 6
     6.828247000     13.608979000     30.510009000 6
     4.618378000      8.249030000     30.052625000 5
     4.414289000      8.515268000     29.121901000 6
     5.080235000      8.945907000     30.564518000 6
     1.103201000      7.605654000     29.732862000 5
     0.598011000      8.288053000     30.240700000 6
     1.090168000      7.752795000     28.763758000 6
     8.246883000     15.060960000     28.584254000 5
     8.087040000     14.730136000     27.665674000 6
     8.757095000     15.897509000     28.613484000 6
     2.633477000     14.046767000     26.186494000 5
     2.241685000     14.954845000     26.212488000 6
     3.613765000     14.045452000     26.190668000 6
     8.275814000     11.400935000     28.593765000 7
     8.254112000     11.393615000     30.099601000 7
     8.960016000     12.514111000     30.534661000 5
     9.227117000     10.902066000     28.272873000 6
     8.354729000     12.462832000     28.242128000 6
     7.376927000     10.898908000     28.211331000 6
     8.720753000     10.473836000     30.521958000 6
     7.233762000     11.446856000     30.517388000 6
     9.361768000     13.026396000     29.774859000 6
     6.483182000      5.994736000     29.982391000 7
     5.115941000      5.388311000     29.806417000 7
     5.257324000      4.004022000     29.889132000 5
     6.974499000      6.004254000     28.974752000 6
     7.101074000      5.306462000     30.616416000 6
     6.386556000      6.996127000     30.423030000 6
     4.660358000      5.656966000     28.825396000 6
     4.398532000      5.707321000     30.582337000 6
     6.213880000      3.726726000     29.985293000 6
     1.666371000     11.705695000     29.602985000 7
     2.130927000     12.243246000     28.275095000 7
     1.188565000     11.869355000     27.318410000 5
     2.034750000     10.649751000     29.681089000 6
     0.547110000     11.637988000     29.589910000 6
     2.037412000     12.351270000     30.410355000 6
     3.130862000     11.844186000     27.986973000 6
     2.217217000     13.343626000     28.260579000 6
     0.465748000     11.294899000     27.703997000 6
     3.381286000     15.160969000     29.408625000 7
     4.545058000     14.228398000     29.198831000 7
     5.693420000     15.010110000     29.083592000 5
     3.032239000     15.489727000     28.395262000 6
     3.752893000     16.087925000     29.918683000 6
     2.600483000     14.649116000     29.987104000 6
     4.425346000     13.607057000     28.281369000 6
     4.691284000     13.524504000     30.036473000 6
     5.488214000     15.989147000     29.106342000 6
    14.376666000      1.181120000     29.861364000 7
    14.135946000      2.559183000     29.303636000 7
    12.784295000      2.648285000     28.974714000 5
    14.563344000      0.498770000     28.991669000 6
    13.428635000      0.816799000     30.336768000 6
    15.215017000      1.213362000     30.570175000 6
    14.752576000      2.759023000     28.397014000 6
    14.368089000      3.363320000     30.023336000 6
    12.301392000      1.784561000     29.122784000 6
     1.669607000      1.529323000     29.047815000 7
     2.954443000      1.213896000     29.767375000 7
     3.438345000      2.406072000     30.303699000 5
     1.941824000      1.861935000     28.012399000 6
     1.193606000      2.418291000     29.538385000 6
     1.016919000      0.646044000     29.057943000 6
     3.720257000      0.775186000     29.086791000 6
     2.821505000      0.494374000     30.593880000 6
     2.873254000      3.191774000     30.049760000 6
     9.746028000      4.534197000     26.840827000 7
     8.264024000      4.714345000     27.039011000 7
     8.004118000      6.083847000     27.037556000 5
    10.227425000      4.606871000     27.850676000 6
    10.137061000      5.405572000     26.253207000 6
     9.935593000      3.574077000     26.342309000 6
     7.911567000      4.270634000     27.998713000 6
     7.661412000      4.249478000     26.239479000 6
     8.841100000      6.627465000     26.966269000 6
     6.971053000      1.309087000     28.128676000 7
     7.534221000      1.463082000     26.740442000 7
     6.672523000      2.295776000     26.028273000 5
     6.224310000      0.473654000     28.093386000 6
     6.385215000      2.231225000     28.381567000 6
     7.788960000      1.124922000     28.838180000 6
     7.625542000      0.485352000     26.213339000 6
     8.539373000      1.919212000     26.729953000 6
     5.865853000      2.550836000     26.562472000 6
    12.053456000     11.502055000     28.537553000 7
    12.526098000     11.271778000     29.948811000 7
    12.640012000     12.518589000     30.561652000 5
    12.961481000     11.704820000     27.912095000 6
    11.448723000     12.446065000     28.512194000 6
    11.481651000     10.629145000     28.194986000 6
    13.510544000     10.750358000     29.982288000 6
    11.827116000     10.658972000     30.544114000 6
    12.445115000     13.269632000     29.929917000 6
    12.762770000      7.262195000     28.193883000 7
    12.697853000      7.512468000     26.710234000 7
    12.991552000      6.310190000     26.068861000 5
    13.833511000      7.380739000     28.504174000 6
    12.506468000      6.187736000     28.387138000 6
    12.085707000      7.954044000     28.712741000 6
    13.422433000      8.293919000     26.383966000 6
    11.702244000      7.848127000     26.371721000 6
    13.230354000      5.585100000     26.715667000 6
     2.916499000      2.043164000     26.052443000 3
     4.629243000      0.497542000     26.066982000 3
     0.628233000     16.048116000     28.222033000 6
    10.852402000     16.046108000     29.794421000 6
     3.614609000     15.567841000      2.631418000 3
     1.555518000     14.704610000      2.465605000 4
     0.500065000     15.366457000      0.991070000 3
     8.353755000      3.571247000      4.170336000 5
     7.923815000      3.465323000      3.285624000 6
     8.257569000      2.784115000      4.746665000 6
     3.887667000     13.632706000      0.607910000 5
     3.003502000     13.747206000      1.036776000 6
     4.149209000     12.694169000      0.499612000 6
     3.397932000      7.583360000      0.716333000 5
     4.332528000      7.863690000      0.552843000 6
     3.228649000      6.643852000      0.493507000 6
     6.222053000     15.768314000      4.461177000 5
     5.662883000     15.789755000      3.645302000 6
     7.149666000     16.044083000      4.304750000 6
    11.316122000      9.027128000      0.499401000 5
    10.598727000      9.104544000      1.176257000 6
    12.175504000      8.740551000      0.873995000 6
     4.363794000      3.030654000      0.744405000 5
     5.247429000      2.592460000      0.667219000 6
     4.417723000      4.007535000      0.805890000 6
    12.824104000      6.111873000      5.003711000 5
    11.943432000      6.562650000      5.003019000 6
    13.569934000      6.714246000      4.799092000 6
    14.957255000      6.136115000      1.272123000 5
    15.420230000      6.750220000      0.649778000 6
    15.420805000      6.027934000      2.129095000 6
    14.747043000      1.718595000      2.827929000 5
    15.068198000      2.646835000      2.946314000 6
    13.794057000      1.607713000      3.029191000 6
     2.604975000      4.768972000      4.818193000 5
     1.636467000      4.693641000      5.005549000 6
     2.845576000      5.587447000      4.335293000 6
     8.837610000      6.990398000      1.099086000 7
     8.546564000      5.520880000      1.253597000 7
     7.162683000      5.360266000      1.207056000 5
     8.769359000      7.451505000      2.118665000 6
     8.014180000      7.457028000      0.497656000 6
     9.823211000      7.122269000      0.632731000 6
     8.935272000      5.114586000      2.215867000 6
     8.990944000      4.905670000      0.452012000 6
     6.682412000      6.235646000      1.142338000 6
    14.070176000     13.388842000      2.659608000 7
    13.424320000     13.419881000      1.299472000 7
    12.303645000     12.592363000      1.348366000 5
    14.752151000     12.499364000      2.683237000 6
    13.278253000     13.186370000      3.427308000 6
    14.594277000     14.337269000      2.838740000 6
    14.113552000     13.064492000      0.498978000 6
    13.092920000     14.429727000      1.001345000 6
    12.213246000     12.130035000      2.231101000 6
     7.051502000      6.791403000      4.392964000 7
     5.922213000      7.643078000      3.875835000 7
     4.796890000      6.827453000      3.768630000 5
     7.522621000      6.290988000      3.507272000 6
     6.620135000      5.965073000      5.016342000 6
     7.755117000      7.418081000      4.957309000 6
     6.153771000      8.088792000      2.880921000 6
     5.673924000      8.484716000      4.545530000 6
     4.997912000      5.874021000      3.996000000 6
     7.870934000     13.684510000      2.852163000 7
     8.948707000     14.428958000      3.595310000 7
     8.966978000     15.735520000      3.109872000 5
     8.325704000     13.303954000      1.900753000 6
     7.080160000     14.416118000      2.540835000 6
     7.472626000     12.883122000      3.488883000 6
     9.952747000     13.966323000      3.453867000 6
     8.773596000     14.469560000      4.684430000 6
     8.320227000     15.868648000      2.358120000 6
     1.162086000      6.457969000      2.691065000 7
     1.462450000      7.743718000      3.415424000 7
     1.483689000      8.764593000      2.466502000 5
     2.136649000      6.056337000      2.309308000 6
     0.551999000      6.694363000      1.780345000 6
     0.648340000      5.765083000      3.370961000 6
     2.442578000      7.708524000      3.944806000 6
     0.704674000      7.998066000      4.176724000 6
     1.356859000      8.418773000      1.536200000 6
     9.428120000      1.573561000      1.307661000 7
    10.117882000      1.156522000      2.579814000 7
     9.182105000      0.482304000      3.362655000 5
     8.921131000      2.552696000      1.510337000 6
     8.605252000      0.843267000      1.090728000 6
    10.162980000      1.630398000      0.493392000 6
    10.516592000      2.029158000      3.146974000 6
    10.972235000      0.479433000      2.406250000 6
     8.273151000      0.476556000      2.944435000 6
     8.313742000     10.716320000      1.957296000 7
     6.840718000     10.964397000      1.765669000 7
     6.375902000     10.033727000      0.837829000 5
     8.852946000     11.279319000      1.151622000 6
     8.522239000      9.631719000      1.763212000 6
     8.609329000     11.025028000      2.969034000 6
     6.633058000     11.994455000      1.394197000 6
     6.257592000     10.843547000      2.695106000 6
     7.112577000      9.463562000      0.472641000 6
    14.352103000      8.964158000      4.349367000 7
    14.539459000     10.384879000      3.886212000 7
    15.179997000     10.341615000      2.648905000 5
    15.296070000      8.657530000      4.870639000 6
    14.272353000      8.301523000      3.448226000 6
    13.465291000      8.902349000      4.994370000 6
    15.151821000     10.982268000      4.600545000 6
    13.586566000     10.927830000      3.760937000 6
    15.418270000      9.408084000      2.378931000 6
    11.228147000      4.189947000      2.627099000 7
    11.596627000      5.603497000      2.260815000 7
    11.892198000      5.620308000      0.898668000 5
    12.182446000      3.644381000      2.847304000 6
    10.791605000      3.688447000      1.724088000 6
    10.532951000      4.200479000      3.477320000 6
    12.477614000      5.970520000      2.836391000 6
    10.780825000      6.324137000      2.444229000 6
    11.852179000      4.707080000      0.491786000 6
     3.330982000      2.006043000      3.645617000 7
     4.804488000      2.286715000      3.780031000 7
     5.489177000      1.222061000      3.196248000 5
     3.034497000      1.363860000      4.515397000 6
     3.168490000      1.376189000      2.732173000 6
     2.779018000      2.954657000      3.603753000 6
     5.117027000      2.389876000      4.844836000 6
     5.115684000      3.215591000      3.271266000 6
     4.870180000      0.502435000      2.879828000 6
    12.285054000      3.983222000      5.014224000 3
     8.834864000      5.508261000      5.089163000 3
    15.445945000      5.584288000      5.004556000 6
    15.422602000      3.337895000      5.004553000 6
%endblock AtomicCoordinatesAndAtomicSpecies

%block DM.InitSpin
%endblock DM.InitSpin

DM.UseSaveDM	True

#KPoint grid
%block kgrid_Monkhorst_Pack
     1       0       0  0.0
     0       1       0  0.0
     0       0       1  0.0
%endblock kgrid_Monkhorst_Pack

