&CONTROL
   calculation      = 'nscf'
   verbosity        = 'high'
   restart_mode     = 'from_scratch'
   wf_collect       = .true.
   outdir           = './outdir'
   pseudo_dir       = './pseudo'
/
&SYSTEM
   nbnd             = 1682
   ecutwfc          = 77.0
   ecutrho          = 539.0
   occupations      = 'tetrahedra'
   assume_isolated  = 'esm'
   esm_bc           = 'bc1'
   vdw_corr         = 'dft-d3'
   dftd3_version    = 4
   ntyp             = 3
   nat              = 193
   ibrav            = 0
/
&ELECTRONS
   electron_maxstep = 1000
   conv_thr         = 1e-06
   mixing_beta      = 0.2
   diagonalization  = 'david'
/
&IONS
/
&CELL
/

ATOMIC_SPECIES
Mo 95.95 Mo.pbe-spn-kjpaw_psl.1.0.0.UPF
S 32.06 S.pbe-n-kjpaw_psl.1.0.0.UPF
Pd 106.42 Pd.pbe-spn-kjpaw_psl.1.0.0.UPF

K_POINTS automatic
2 2 1  0 0 0

CELL_PARAMETERS angstrom
12.60495876880469 0.00000000000000 0.00000000000000
-6.30246677944357 10.91622202271285 0.00000000000000
0.00000000000000 0.00000000000000 36.46614571815195

ATOMIC_POSITIONS angstrom
Mo 0.0000119917 1.8193638619 -9.1672481230 
Mo 1.5756136568 0.9097075315 -3.0554901653 
S 0.0000188998 1.8193822938 -4.6232556019 
S 1.5756321638 0.9096773839 -7.6014065489 
S 1.5756326175 0.9096785128 -10.7330757790 
S 0.0000189190 1.8193860094 -1.4877129945 
Mo 0.0000375594 1.8194176740 3.0555828755 
Mo 1.5756699999 0.9116845948 9.1718639947 
S 0.0001469046 1.8137453380 7.5979223187 
S 1.5756520011 0.9097022729 4.6230866499 
S 1.5756458873 0.9097591413 1.4878077830 
S -0.0005919752 1.8250432131 10.7384102201 
Mo -1.5756053507 4.5484193819 -9.1672481230 
Mo 0.0000378379 3.6387394919 -3.0554952701 
S -1.5755913433 4.5484363582 -4.6232494962 
S 0.0000148214 3.6387329039 -7.6014065489 
S 0.0000152751 3.6387340328 -10.7330757790 
S -1.5755906502 4.5484413613 -1.4877305502 
Mo -1.5755547403 4.5483996399 3.0555788514 
Mo -0.0068318219 3.6347857304 9.1597297620 
S -1.5804068632 4.5513503787 7.5979219287 
S 0.0002798463 3.6388903326 4.6234610177 
S -0.0000354528 3.6387114950 1.4876948886 
S -1.5709966343 4.5450619675 10.7384072517 
Mo -3.1512226931 7.2774749019 -9.1672481230 
Mo -1.5755910988 6.3678216792 -3.0555115988 
S -3.1512162438 7.2774954350 -4.6232578178 
S -1.5756025210 6.3677884239 -7.6014065489 
S -1.5756020673 6.3677895528 -10.7330757790 
S -3.1512127704 7.2774877076 -1.4877200710 
Mo -3.1512081352 7.2774976972 3.0554769003 
Mo -1.5738526362 6.3668264457 9.1718615078 
S -3.1502513947 7.2769635610 7.6027720062 
S -1.5755702316 6.3677916266 4.6231014330 
S -1.5755218962 6.3677486713 1.4877855909 
S -3.1502581645 7.2769656937 10.7392151757 
Mo -4.7268400355 10.0065304219 -9.1672481230 
Mo -3.1512405618 9.0968403586 -3.0554816746 
S -4.7268341792 10.0065523623 -4.6232463762 
S -3.1512198634 9.0968439439 -7.6014065489 
S -3.1512194097 9.0968450728 -10.7330757790 
S -4.7268370797 10.0065537885 -1.4877176751 
Mo -4.7268078371 10.0065359301 3.0554677751 
Mo -3.1513035039 9.0967991842 9.1698317809 
S -4.7268009555 10.0076343261 7.6027733865 
S -3.1512349410 9.0968223212 4.6233101427 
S -3.1511981352 9.0968505874 1.4877171730 
S -4.7267995775 10.0076277185 10.7392186017 
Mo 3.1512517547 1.8193638619 -9.1672481230 
Mo 4.7269020221 0.9097289540 -3.0554823951 
S 3.1512612351 1.8193882564 -4.6232320683 
S 4.7268719268 0.9096773839 -7.6014065489 
S 4.7268723805 0.9096785128 -10.7330757790 
S 3.1512592485 1.8193890201 -1.4877261251 
Mo 3.1512815834 1.8194122538 3.0555623923 
Mo 4.7252522078 0.9083075255 9.1696691403 
S 3.1511940005 1.8137377503 7.5979152984 
S 4.7269940065 0.9096861485 4.6232076745 
S 4.7268555781 0.9097151486 1.4877578178 
S 3.1519340198 1.8250479627 10.7384051930 
Mo 1.5756344123 4.5484193819 -9.1672481230 
Mo 3.1512756394 3.6387769522 -3.0554814834 
S 1.5756504879 4.5484423799 -4.6232390542 
S 3.1512545844 3.6387329039 -7.6014065489 
S 3.1512550381 3.6387340328 -10.7330757790 
S 1.5756466253 4.5484431864 -1.4877251801 
Mo 1.5756494212 4.5484209373 3.0554118581 
Mo 3.1581782940 3.6347822981 9.1597144905 
S 1.5756707583 4.5484476828 7.6009177067 
S 3.1510375063 3.6388919017 4.6234368873 
S 3.1513436914 3.6387159144 1.4877142162 
S 1.5756842700 4.5484284491 10.7284035245 
Mo 0.0000170699 7.2774749019 -9.1672481230 
Mo 1.5756764447 6.3678236689 -3.0554877708 
S 0.0000381981 7.2774979204 -4.6232454413 
S 1.5756372420 6.3677884239 -7.6014065489 
S 1.5756376957 6.3677895528 -10.7330757790 
S 0.0000328088 7.2774946042 -1.4877307940 
Mo 0.0000780509 7.2774767819 3.0555591923 
Mo 1.5756740805 6.3757595501 9.1597399229 
S -0.0048755360 7.2802368088 7.5979275871 
S 1.5756671399 6.3675214247 4.6234367171 
S 1.5756661480 6.3678702432 1.4877052673 
S 0.0052676634 7.2752330588 10.7384121827 
Mo -1.5756002725 10.0065304219 -9.1672481230 
Mo 0.0000873425 9.0968676911 -3.0554912329 
S -1.5755883952 10.0065504530 -4.6232240150 
S 0.0000198996 9.0968439439 -7.6014065489 
S 0.0000203533 9.0968450728 -10.7330757790 
S -1.5755859047 10.0065492576 -1.4877362381 
Mo -1.5756129313 10.0065255980 3.0554955493 
Mo -0.0019774473 9.0961337984 9.1696719674 
S -1.5768144936 10.0058307918 7.6014447144 
S 0.0000906270 9.0969257319 4.6232075072 
S 0.0000492499 9.0967967647 1.4877625152 
S -1.5767842185 10.0058518618 10.7387379939 
Mo 6.3024915177 1.8193638619 -9.1672481230 
Mo 7.8781001445 0.9096521684 -3.0554919963 
S 6.3025008696 1.8193826232 -4.6232480596 
S 7.8781116898 0.9096773839 -7.6014065489 
S 7.8781121435 0.9096785128 -10.7330757790 
S 6.3025042007 1.8193849068 -1.4877147524 
Mo 6.3025501954 1.8193385304 3.0554683465 
Mo 7.8781514461 0.9097055039 9.1682034365 
S 6.3013822918 1.8200469827 7.6018164053 
S 7.8781376238 0.9096862888 4.6233509531 
S 7.8781500661 0.9096901774 1.4876897358 
S 6.3020289308 1.8196766742 10.7370577624 
Mo 4.7268741753 4.5484193819 -9.1672481230 
Mo 6.3024679138 3.6387501714 -3.0554895197 
S 4.7268748770 4.5484386753 -4.6232519432 
S 6.3024943474 3.6387329039 -7.6014065489 
S 6.3024948011 3.6387340328 -10.7330757790 
S 4.7268770533 4.5484432419 -1.4877137856 
Mo 4.7268553866 4.5483791676 3.0555594730 
Mo 6.3029137037 3.6408907614 9.1696675481 
S 4.7317571577 4.5513527056 7.5979165431 
S 6.3025623294 3.6386677165 4.6232366258 
S 6.3024769935 3.6387772062 1.4877424749 
S 4.7223368743 4.5450565514 10.7384026335 
Mo 3.1512568329 7.2774749019 -9.1672481230 
Mo 4.7268384135 6.3678043337 -3.0554959052 
S 3.1512606125 7.2774972547 -4.6232589675 
S 4.7268770050 6.3677884239 -7.6014065489 
S 4.7268774587 6.3677895528 -10.7330757790 
S 3.1512629079 7.2774963749 -1.4877081835 
Mo 3.1512260109 7.2774596872 3.0555541990 
Mo 4.7252034177 6.3668252263 9.1718624216 
S 3.1562250392 7.2802346596 7.5979293785 
S 4.7268889415 6.3677935245 4.6231137195 
S 4.7268406693 6.3677596145 1.4877723181 
S 3.1460813083 7.2752306055 10.7384132179 
Mo 1.5756394905 10.0065304219 -9.1672481230 
Mo 3.1512330605 9.0968514907 -3.0554878870 
S 1.5756499830 10.0065443759 -4.6232632674 
S 3.1512596626 9.0968439439 -7.6014065489 
S 3.1512601163 9.0968450728 -10.7330757790 
S 1.5756503041 10.0065459699 -1.4877044377 
Mo 1.5756568002 10.0065879419 3.0554556076 
Mo 3.1533350973 9.0961352455 9.1696724797 
S 1.5756771378 10.0052326196 7.6018191874 
S 3.1512487716 9.0969198878 4.6232351623 
S 3.1512949421 9.0967971546 1.4877376946 
S 1.5756769710 10.0059820739 10.7370589271 
Mo 9.4537312807 1.8193638619 -9.1672481230 
Mo 11.0293863460 0.9096952246 -3.0554894007 
S 9.4537395970 1.8193770750 -4.6232328036 
S 11.0293514528 0.9096773839 -7.6014065489 
S 11.0293519066 0.9096785128 -10.7330757790 
S 9.4537393632 1.8193794783 -1.4877366147 
Mo 9.4537173467 1.8193421048 3.0554777870 
Mo 11.0310400691 0.9083078526 9.1696700710 
S 9.4549121313 1.8200473921 7.6018208471 
S 11.0292813774 0.9096767844 4.6232214273 
S 11.0294116801 0.9097102486 1.4877671386 
S 9.4542648923 1.8196768252 10.7370533510 
Mo 7.8781139383 4.5484193819 -9.1672481230 
Mo 9.4537539161 3.6387607911 -3.0554933032 
S 7.8781175448 4.5484378232 -4.6232366318 
S 9.4537341104 3.6387329039 -7.6014065489 
S 9.4537345641 3.6387340328 -10.7330757790 
S 7.8781194018 4.5484411585 -1.4877377057 
Mo 7.8781373237 4.5484529461 3.0555046909 
Mo 9.4533892761 3.6408869587 9.1696685220 
S 7.8781524027 4.5498938040 7.6014430816 
S 9.4537091115 3.6386684656 4.6232340274 
S 9.4538027371 3.6387688509 1.4877634266 
S 7.8781513650 4.5498560215 10.7387316796 
Mo 6.3024965959 7.2774749019 -9.1672481230 
Mo 7.8781361655 6.3678242352 -3.0555014130 
S 6.3024973331 7.2774953556 -4.6232392528 
S 7.8781167680 6.3677884239 -7.6014065489 
S 7.8781172217 6.3677895528 -10.7330757790 
S 6.3024989866 7.2774929744 -1.4877349119 
Mo 6.3025313692 7.2774876267 3.0554731687 
Mo 7.8781531561 6.3679578080 9.1698284683 
S 6.3016020325 7.2769634949 7.6027745646 
S 7.8781338415 6.3678419469 4.6232888304 
S 7.8781323683 6.3677818570 1.4877428631 
S 6.3016094647 7.2769642457 10.7392153088 
Mo 4.7268792535 10.0065304219 -9.1672481230 
Mo 6.3025111524 9.0968738021 -3.0554915260 
S 4.7268840634 10.0065452125 -4.6232380477 
S 6.3024994256 9.0968439439 -7.6014065489 
S 6.3024998793 9.0968450728 -10.7330757790 
S 4.7268847312 10.0065459141 -1.4877283294 
Mo 4.7269366873 10.0065263005 3.0555065972 
Mo 6.3026592459 9.0967980995 9.1698325096 
S 4.7281738810 10.0058303256 7.6014468796 
S 6.3025613447 9.0968166130 4.6233022334 
S 6.3025182350 9.0968472380 1.4877326712 
S 4.7281424212 10.0058507265 10.7387350610 
Pd 1.5759839904 4.5480305552 12.8832069721 

