&CONTROL
   calculation      = 'relax'
   restart_mode     = 'from_scratch'
   wf_collect       = .true.
   nstep            = 1000
   tstress          = .false.
   tprnfor          = .true.
   outdir           = './outdir'
   pseudo_dir       = './pseudo'
/
&SYSTEM
   ecutwfc          = 36
   ecutrho          = 400
   nosym            = .true.
   occupations      = 'smearing'
   degauss          = 0.01
   smearing         = 'gaussian'
   vdw_corr         = 'dft-d3'
   dftd3_version    = 4
   ntyp             = 4
   nat              = 114
   ibrav            = 0
/
&ELECTRONS
   electron_maxstep = 1000
   conv_thr         = 1e-06
   mixing_beta      = 0.2
   diagonalization  = 'david'
/
&IONS
/
&CELL
/

ATOMIC_SPECIES
Br 79.904 Br.pbe-dn-rrkjus_psl.1.0.0.UPF
C 12.011 C.pbe-n-rrkjus_psl.1.0.0.UPF
N 14.007 N.pbe-n-rrkjus_psl.1.0.0.UPF
Zn 65.38 Zn.pbe-spn-rrkjus_psl.1.0.0.UPF

K_POINTS gamma

CELL_PARAMETERS angstrom
50.00000000000000 0.00000000000000 0.00000000000000
0.00000000000000 50.00000000000000 0.00000000000000
0.00000000000000 0.00000000000000 50.00000000000000

ATOMIC_POSITIONS angstrom
Br 11.9653060000 30.7692650000 38.3993920000 
Br 14.6314230000 27.5857520000 38.2314380000 
Br 8.1049140000 32.0344900000 36.0883360000 
Br 10.7696650000 32.6448610000 39.0266120000 
Br 16.3093850000 26.0655930000 38.6789570000 
Br 15.0985270000 23.7159030000 35.6497970000 
Br 8.8662620000 33.2570270000 37.8967110000 
Br 16.5310470000 24.1537390000 37.4147360000 
Br 6.0637690000 30.5039480000 32.5664050000 
Br 13.0573830000 22.1853620000 32.1278660000 
Br 4.6312500000 30.0661130000 30.8014660000 
Br 6.5308740000 26.6341000000 29.9847650000 
Br 9.1969900000 23.4505860000 29.8168100000 
Br 12.2960340000 20.9628250000 30.3194920000 
Br 4.8529120000 28.1542590000 29.5372450000 
Br 10.3926320000 21.5749910000 29.1895910000 
C 11.2254320000 29.0735270000 36.2391960000 
C 12.7245350000 27.2755960000 36.1426390000 
C 10.7345830000 30.2872460000 36.8608280000 
C 13.8711710000 26.5500440000 36.6669980000 
C 9.5876100000 30.6626480000 36.1639470000 
C 11.1959800000 31.0209920000 37.9398470000 
C 9.3979770000 29.6663710000 35.1255060000 
C 12.9344660000 25.4476100000 34.9093750000 
C 14.7258670000 26.8163270000 37.7175290000 
C 14.0019860000 25.4041250000 35.8906160000 
C 8.8735060000 31.7790090000 36.5439040000 
C 10.4806330000 32.1317770000 38.3057090000 
C 15.7169930000 25.9087790000 37.9796710000 
C 15.0020420000 24.4870760000 36.1607400000 
C 9.3349200000 32.5024780000 37.6219920000 
C 8.2278310000 28.7722420000 33.3068270000 
C 11.7643200000 24.5534810000 33.0906970000 
C 15.8522570000 24.7570130000 37.2138460000 
C 7.1603110000 28.8157270000 32.3255860000 
C 11.5746870000 23.5572040000 32.0522550000 
C 6.1602550000 29.7327760000 32.0554620000 
C 7.2911260000 27.6698080000 31.5492040000 
C 8.4377620000 26.9442560000 32.0735630000 
C 9.9368650000 25.1463250000 31.9770070000 
C 10.4277140000 23.9326060000 31.3553750000 
C 12.2887910000 22.4408430000 31.6722990000 
C 5.3100400000 29.4628390000 31.0023570000 
C 6.4364300000 27.4035250000 30.4986730000 
C 9.9663160000 23.1988590000 30.2763550000 
C 11.8273770000 21.7173740000 30.5942100000 
C 5.4453040000 28.3110730000 30.2365310000 
C 10.6816640000 22.0880750000 29.9104940000 
N 12.3103270000 28.4285200000 36.6532640000 
N 10.3906830000 28.7275410000 35.2219170000 
N 12.1927140000 26.5791220000 35.1090260000 
N 8.4108240000 29.7022660000 34.2377680000 
N 12.7514720000 24.5175860000 33.9784350000 
N 8.9695830000 27.6407300000 33.1071770000 
N 10.7716140000 25.4923110000 32.9942850000 
N 8.8519700000 25.7913320000 31.5629380000 
Zn 10.5811480000 27.1099260000 34.1081010000 
Br 14.4286950000 31.5722630000 24.8487200000 
Br 13.3453360000 32.7188880000 28.6935520000 
Br 18.3004180000 29.9378390000 22.8035250000 
Br 14.4229790000 30.9571960000 22.6210570000 
Br 12.1700090000 33.3513800000 30.5764410000 
Br 15.4561250000 32.9558390000 32.8585500000 
Br 16.3238600000 30.1428320000 21.6221440000 
Br 13.2074800000 33.4558200000 32.6295660000 
Br 22.4034220000 29.3785070000 24.1321820000 
Br 19.5591290000 32.3965080000 34.1872060000 
Br 24.6520680000 28.8785270000 24.3611650000 
Br 24.5142110000 29.6154590000 28.2971800000 
Br 23.4308530000 30.7620830000 32.1420120000 
Br 21.5356880000 32.1915150000 35.3685880000 
Br 25.6895380000 28.9829660000 26.4142900000 
Br 23.4365680000 31.3771500000 34.3696740000 
C 16.7122830000 31.3839740000 26.5337020000 
C 16.1051560000 32.0269390000 28.7033060000 
C 16.3823360000 31.1163260000 25.1480710000 
C 15.1043410000 32.4663440000 29.6632250000 
C 17.5416190000 30.6352910000 24.5424450000 
C 15.1994000000 31.2459260000 24.4413750000 
C 18.5624010000 30.6172780000 25.5742240000 
C 17.1194770000 32.1365350000 30.6694400000 
C 13.7647830000 32.7675640000 29.5222440000 
C 15.7434390000 32.5359290000 30.8959960000 
C 17.5336250000 30.2641210000 23.2147620000 
C 15.2044360000 30.8783530000 23.1206620000 
C 13.0726780000 33.1388400000 30.6437780000 
C 15.0402230000 32.9074810000 32.0280270000 
C 16.3517200000 30.3906040000 22.5178480000 
C 20.7400700000 30.1978120000 26.3212910000 
C 19.2971460000 31.7170690000 31.4165080000 
C 13.7005220000 33.2051220000 31.8818290000 
C 22.1161080000 29.7984180000 26.0947360000 
C 20.3179280000 31.6990560000 32.4482870000 
C 22.8193240000 29.4268660000 24.9627050000 
C 22.7552060000 29.8680030000 27.3275060000 
C 21.7543910000 30.3074080000 28.2874260000 
C 21.1472640000 30.9503730000 30.4570300000 
C 21.4772120000 31.2180210000 31.8426600000 
C 20.3259220000 32.0702260000 33.7759700000 
C 24.1590250000 29.1292250000 25.1089020000 
C 24.0947640000 29.5667830000 27.4684870000 
C 22.6601480000 31.0884200000 32.5493570000 
C 21.5078270000 31.9437430000 34.4728830000 
C 24.7868690000 29.1955070000 26.3469530000 
C 22.6551110000 31.4559940000 33.8700700000 
N 15.8360520000 31.8521990000 27.4154440000 
N 18.0148550000 31.0559280000 26.7506340000 
N 17.2819900000 31.8317930000 29.3461500000 
N 19.8178090000 30.2373400000 25.3658050000 
N 18.0417380000 32.0970060000 31.6249270000 
N 20.5775580000 30.5025540000 27.6445810000 
N 19.8446920000 31.2784190000 30.2400980000 
N 22.0234950000 30.4821480000 29.5752880000 
Zn 18.9297740000 31.1671730000 28.4953660000 

