SystemName	siesta
SystemLabel	siesta

MD.NumCGsteps	2000
MD.TypeOfRun	CG
MD.UseSaveXV	True
MaxSCFIterations	2000
%block SCF.Mixer.broyden
method	broyden
weight	0.01
weight.linear	0.005
%endblock SCF.Mixer.broyden
%block SCF.Mixers
broyden
%endblock SCF.Mixers
SCFMustConverge	False
SolutionMethod	diagon
WriteCoorCerius	True
WriteCoorStep	True
WriteCoorXmol	True
WriteForces	True
WriteMDHistory	True
WriteMDXmol	True

Spin     	non-polarized
XC.functional	VDW
XC.authors	DRSLL

MeshCutoff	680.2846506091811	eV
PAO.EnergyShift	0.1	eV

NumberOfSpecies	4
NumberOfAtoms	114
%block ChemicalSpecieslabel
    1 35 Br.vdw.1
    2 6 C.vdw.2
    3 7 N.vdw.3
    4 30 Zn.vdw.4
%endblock ChemicalSpecieslabel

%block PAO.BasisSizes
    Br.vdw.1	SZ
    C.vdw.2	SZ
    N.vdw.3	SZ
    Zn.vdw.4	SZ
%endblock PAO.BasisSizes


LatticeConstant	1.0 Ang
%block LatticeVectors
    50.000000000000000     0.000000000000000     0.000000000000000 
    0.000000000000000     50.000000000000000     0.000000000000000 
    0.000000000000000     0.000000000000000     50.000000000000000 
%endblock LatticeVectors


AtomicCoordinatesFormat  Ang
%block AtomicCoordinatesAndAtomicSpecies
    11.965306000     30.769265000     38.399392000 1
    14.631423000     27.585752000     38.231438000 1
     8.104914000     32.034490000     36.088336000 1
    10.769665000     32.644861000     39.026612000 1
    16.309385000     26.065593000     38.678957000 1
    15.098527000     23.715903000     35.649797000 1
     8.866262000     33.257027000     37.896711000 1
    16.531047000     24.153739000     37.414736000 1
     6.063769000     30.503948000     32.566405000 1
    13.057383000     22.185362000     32.127866000 1
     4.631250000     30.066113000     30.801466000 1
     6.530874000     26.634100000     29.984765000 1
     9.196990000     23.450586000     29.816810000 1
    12.296034000     20.962825000     30.319492000 1
     4.852912000     28.154259000     29.537245000 1
    10.392632000     21.574991000     29.189591000 1
    11.225432000     29.073527000     36.239196000 2
    12.724535000     27.275596000     36.142639000 2
    10.734583000     30.287246000     36.860828000 2
    13.871171000     26.550044000     36.666998000 2
     9.587610000     30.662648000     36.163947000 2
    11.195980000     31.020992000     37.939847000 2
     9.397977000     29.666371000     35.125506000 2
    12.934466000     25.447610000     34.909375000 2
    14.725867000     26.816327000     37.717529000 2
    14.001986000     25.404125000     35.890616000 2
     8.873506000     31.779009000     36.543904000 2
    10.480633000     32.131777000     38.305709000 2
    15.716993000     25.908779000     37.979671000 2
    15.002042000     24.487076000     36.160740000 2
     9.334920000     32.502478000     37.621992000 2
     8.227831000     28.772242000     33.306827000 2
    11.764320000     24.553481000     33.090697000 2
    15.852257000     24.757013000     37.213846000 2
     7.160311000     28.815727000     32.325586000 2
    11.574687000     23.557204000     32.052255000 2
     6.160255000     29.732776000     32.055462000 2
     7.291126000     27.669808000     31.549204000 2
     8.437762000     26.944256000     32.073563000 2
     9.936865000     25.146325000     31.977007000 2
    10.427714000     23.932606000     31.355375000 2
    12.288791000     22.440843000     31.672299000 2
     5.310040000     29.462839000     31.002357000 2
     6.436430000     27.403525000     30.498673000 2
     9.966316000     23.198859000     30.276355000 2
    11.827377000     21.717374000     30.594210000 2
     5.445304000     28.311073000     30.236531000 2
    10.681664000     22.088075000     29.910494000 2
    12.310327000     28.428520000     36.653264000 3
    10.390683000     28.727541000     35.221917000 3
    12.192714000     26.579122000     35.109026000 3
     8.410824000     29.702266000     34.237768000 3
    12.751472000     24.517586000     33.978435000 3
     8.969583000     27.640730000     33.107177000 3
    10.771614000     25.492311000     32.994285000 3
     8.851970000     25.791332000     31.562938000 3
    10.581148000     27.109926000     34.108101000 4
    14.428695000     31.572263000     24.848720000 1
    13.345336000     32.718888000     28.693552000 1
    18.300418000     29.937839000     22.803525000 1
    14.422979000     30.957196000     22.621057000 1
    12.170009000     33.351380000     30.576441000 1
    15.456125000     32.955839000     32.858550000 1
    16.323860000     30.142832000     21.622144000 1
    13.207480000     33.455820000     32.629566000 1
    22.403422000     29.378507000     24.132182000 1
    19.559129000     32.396508000     34.187206000 1
    24.652068000     28.878527000     24.361165000 1
    24.514211000     29.615459000     28.297180000 1
    23.430853000     30.762083000     32.142012000 1
    21.535688000     32.191515000     35.368588000 1
    25.689538000     28.982966000     26.414290000 1
    23.436568000     31.377150000     34.369674000 1
    16.712283000     31.383974000     26.533702000 2
    16.105156000     32.026939000     28.703306000 2
    16.382336000     31.116326000     25.148071000 2
    15.104341000     32.466344000     29.663225000 2
    17.541619000     30.635291000     24.542445000 2
    15.199400000     31.245926000     24.441375000 2
    18.562401000     30.617278000     25.574224000 2
    17.119477000     32.136535000     30.669440000 2
    13.764783000     32.767564000     29.522244000 2
    15.743439000     32.535929000     30.895996000 2
    17.533625000     30.264121000     23.214762000 2
    15.204436000     30.878353000     23.120662000 2
    13.072678000     33.138840000     30.643778000 2
    15.040223000     32.907481000     32.028027000 2
    16.351720000     30.390604000     22.517848000 2
    20.740070000     30.197812000     26.321291000 2
    19.297146000     31.717069000     31.416508000 2
    13.700522000     33.205122000     31.881829000 2
    22.116108000     29.798418000     26.094736000 2
    20.317928000     31.699056000     32.448287000 2
    22.819324000     29.426866000     24.962705000 2
    22.755206000     29.868003000     27.327506000 2
    21.754391000     30.307408000     28.287426000 2
    21.147264000     30.950373000     30.457030000 2
    21.477212000     31.218021000     31.842660000 2
    20.325922000     32.070226000     33.775970000 2
    24.159025000     29.129225000     25.108902000 2
    24.094764000     29.566783000     27.468487000 2
    22.660148000     31.088420000     32.549357000 2
    21.507827000     31.943743000     34.472883000 2
    24.786869000     29.195507000     26.346953000 2
    22.655111000     31.455994000     33.870070000 2
    15.836052000     31.852199000     27.415444000 3
    18.014855000     31.055928000     26.750634000 3
    17.281990000     31.831793000     29.346150000 3
    19.817809000     30.237340000     25.365805000 3
    18.041738000     32.097006000     31.624927000 3
    20.577558000     30.502554000     27.644581000 3
    19.844692000     31.278419000     30.240098000 3
    22.023495000     30.482148000     29.575288000 3
    18.929774000     31.167173000     28.495366000 4
%endblock AtomicCoordinatesAndAtomicSpecies

%block DM.InitSpin
%endblock DM.InitSpin

DM.UseSaveDM	True

#KPoint grid
%block kgrid_Monkhorst_Pack
     1       0       0  0.0
     0       1       0  0.0
     0       0       1  0.0
%endblock kgrid_Monkhorst_Pack

