&CONTROL
   calculation      = 'relax'
   restart_mode     = 'from_scratch'
   wf_collect       = .true.
   nstep            = 1000
   tstress          = .false.
   tprnfor          = .true.
   outdir           = './outdir'
   pseudo_dir       = './pseudo'
/
&SYSTEM
   ecutwfc          = 77.0
   ecutrho          = 539.0
   nosym            = .false.
   occupations      = 'smearing'
   degauss          = 0.01
   smearing         = 'gaussian'
   assume_isolated  = 'esm'
   esm_bc           = 'bc1'
   vdw_corr         = 'dft-d3'
   dftd3_version    = 4
   ntyp             = 2
   nat              = 144
   ibrav            = 0
/
&ELECTRONS
   electron_maxstep = 1000
   conv_thr         = 1e-06
   mixing_beta      = 0.2
   diagonalization  = 'david'
/
&IONS
/
&CELL
/

ATOMIC_SPECIES
Mo 95.95 Mo.pbe-spn-kjpaw_psl.1.0.0.UPF
S 32.06 S.pbe-n-kjpaw_psl.1.0.0.UPF

K_POINTS automatic
4 4 1  0 0 0

CELL_PARAMETERS angstrom
12.61532228800451 0.00000000000000 0.00000000000000
-6.30767427994221 10.92519697199424 0.00000000000000
0.00000000000000 0.00000000000000 30.30126471408414

ATOMIC_POSITIONS angstrom
Mo 1.5768936162 2.7312815303 6.0856188703 
Mo 1.5769197498 0.9104407117 -6.0872367793  0 0 0
Mo -0.0000218054 1.8208661331 -0.0009503291 
S 0.0000044503 0.0000077495 -7.6506323570  0 0 0
S 1.5768942319 0.9104314756 -1.5643562525 
S -0.0000212190 1.8208486427 4.5222204573 
S 0.0000053241 0.0000068460 -4.5222282367  0 0 0
S 1.5768936274 0.9104333641 1.5640692510 
S -0.0000215328 1.8208476483 7.6506323570 
Mo -0.0000249538 5.4625807733 6.0856188703 
Mo 0.0000011799 3.6417399547 -6.0872367793  0 0 0
Mo -1.5769403754 4.5521653761 -0.0009503291 
S -1.5769141197 2.7313069925 -7.6506323570  0 0 0
S -0.0000243381 3.6417307186 -1.5643562525 
S -1.5769397890 4.5521478857 4.5222204573 
S -1.5769132459 2.7313060890 -4.5222282367  0 0 0
S -0.0000249426 3.6417326071 1.5640692510 
S -1.5769401028 4.5521468913 7.6506323570 
Mo -1.5769435238 8.1938800163 6.0856188703 
Mo -1.5769173901 6.3730391977 -6.0872367793  0 0 0
Mo -3.1538589454 7.2834646191 -0.0009503291 
S -3.1538326896 5.4626062355 -7.6506323570  0 0 0
S -1.5769429081 6.3730299616 -1.5643562525 
S -3.1538583590 7.2834471287 4.5222204573 
S -3.1538318159 5.4626053320 -4.5222282367  0 0 0
S -1.5769435126 6.3730318501 1.5640692510 
S -3.1538586728 7.2834461343 7.6506323570 
Mo 3.1538121862 -0.0000177127 6.0856188703 
Mo -3.1538359601 9.1043384407 -6.0872367793  0 0 0
Mo -4.7307775154 10.0147638621 -0.0009503291 
S -4.7307512596 8.1939054785 -7.6506323570  0 0 0
S -3.1538614781 9.1043292046 -1.5643562525 
S -4.7307769290 10.0147463717 4.5222204573 
S -4.7307503859 8.1939045750 -4.5222282367  0 0 0
S -3.1538620825 9.1043310931 1.5640692510 
S -4.7307772428 10.0147453773 7.6506323570 
Mo 4.7307241882 2.7312815303 6.0856188703 
Mo 4.7307503218 0.9104407117 -6.0872367793  0 0 0
Mo 3.1538087666 1.8208661331 -0.0009503291 
S 3.1538350223 0.0000077495 -7.6506323570  0 0 0
S 4.7307248039 0.9104314756 -1.5643562525 
S 3.1538093530 1.8208486427 4.5222204573 
S 3.1538358961 0.0000068460 -4.5222282367  0 0 0
S 4.7307241994 0.9104333641 1.5640692510 
S 3.1538090392 1.8208476483 7.6506323570 
Mo 3.1538056182 5.4625807733 6.0856188703 
Mo 3.1538317519 3.6417399547 -6.0872367793  0 0 0
Mo 1.5768901966 4.5521653761 -0.0009503291 
S 1.5769164523 2.7313069925 -7.6506323570  0 0 0
S 3.1538062339 3.6417307186 -1.5643562525 
S 1.5768907830 4.5521478857 4.5222204573 
S 1.5769173261 2.7313060890 -4.5222282367  0 0 0
S 3.1538056294 3.6417326071 1.5640692510 
S 1.5768904692 4.5521468913 7.6506323570 
Mo 1.5768870482 8.1938800163 6.0856188703 
Mo 1.5769131819 6.3730391977 -6.0872367793  0 0 0
Mo -0.0000283734 7.2834646191 -0.0009503291 
S -0.0000021176 5.4626062355 -7.6506323570  0 0 0
S 1.5768876639 6.3730299616 -1.5643562525 
S -0.0000277870 7.2834471287 4.5222204573 
S -0.0000012439 5.4626053320 -4.5222282367  0 0 0
S 1.5768870594 6.3730318501 1.5640692510 
S -0.0000281008 7.2834461343 7.6506323570 
Mo 6.3076427582 -0.0000177127 6.0856188703 
Mo -0.0000053881 9.1043384407 -6.0872367793  0 0 0
Mo -1.5769469434 10.0147638621 -0.0009503291 
S -1.5769206876 8.1939054785 -7.6506323570  0 0 0
S -0.0000309061 9.1043292046 -1.5643562525 
S -1.5769463570 10.0147463717 4.5222204573 
S -1.5769198139 8.1939045750 -4.5222282367  0 0 0
S -0.0000315105 9.1043310931 1.5640692510 
S -1.5769466707 10.0147453773 7.6506323570 
Mo 7.8845547602 2.7312815303 6.0856188703 
Mo 7.8845808939 0.9104407117 -6.0872367793  0 0 0
Mo 6.3076393386 1.8208661331 -0.0009503291 
S 6.3076655943 0.0000077495 -7.6506323570  0 0 0
S 7.8845553759 0.9104314756 -1.5643562525 
S 6.3076399250 1.8208486427 4.5222204573 
S 6.3076664681 0.0000068460 -4.5222282367  0 0 0
S 7.8845547714 0.9104333641 1.5640692510 
S 6.3076396112 1.8208476483 7.6506323570 
Mo 6.3076361902 5.4625807733 6.0856188703 
Mo 6.3076623239 3.6417399547 -6.0872367793  0 0 0
Mo 4.7307207686 4.5521653761 -0.0009503291 
S 4.7307470244 2.7313069925 -7.6506323570  0 0 0
S 6.3076368059 3.6417307186 -1.5643562525 
S 4.7307213550 4.5521478857 4.5222204573 
S 4.7307478981 2.7313060890 -4.5222282367  0 0 0
S 6.3076362014 3.6417326071 1.5640692510 
S 4.7307210412 4.5521468913 7.6506323570 
Mo 4.7307176202 8.1938800163 6.0856188703 
Mo 4.7307437539 6.3730391977 -6.0872367793  0 0 0
Mo 3.1538021986 7.2834646191 -0.0009503291 
S 3.1538284544 5.4626062355 -7.6506323570  0 0 0
S 4.7307182359 6.3730299616 -1.5643562525 
S 3.1538027850 7.2834471287 4.5222204573 
S 3.1538293281 5.4626053320 -4.5222282367  0 0 0
S 4.7307176314 6.3730318501 1.5640692510 
S 3.1538024712 7.2834461343 7.6506323570 
Mo 9.4614733302 -0.0000177127 6.0856188703 
Mo 3.1538251839 9.1043384407 -6.0872367793  0 0 0
Mo 1.5768836286 10.0147638621 -0.0009503291 
S 1.5769098844 8.1939054785 -7.6506323570  0 0 0
S 3.1537996659 9.1043292046 -1.5643562525 
S 1.5768842150 10.0147463717 4.5222204573 
S 1.5769107581 8.1939045750 -4.5222282367  0 0 0
S 3.1537990615 9.1043310931 1.5640692510 
S 1.5768839013 10.0147453773 7.6506323570 
Mo -1.5769369558 2.7312815303 6.0856188703 
Mo 11.0384114659 0.9104407117 -6.0872367793  0 0 0
Mo 9.4614699106 1.8208661331 -0.0009503291 
S 9.4614961663 0.0000077495 -7.6506323570  0 0 0
S 11.0383859479 0.9104314756 -1.5643562525 
S 9.4614704970 1.8208486427 4.5222204573 
S 9.4614970401 0.0000068460 -4.5222282367  0 0 0
S 11.0383853434 0.9104333641 1.5640692510 
S 9.4614701832 1.8208476483 7.6506323570 
Mo -3.1538555258 5.4625807733 6.0856188703 
Mo 9.4614928959 3.6417399547 -6.0872367793  0 0 0
Mo 7.8845513406 4.5521653761 -0.0009503291 
S 7.8845775964 2.7313069925 -7.6506323570  0 0 0
S 9.4614673779 3.6417307186 -1.5643562525 
S 7.8845519270 4.5521478857 4.5222204573 
S 7.8845784701 2.7313060890 -4.5222282367  0 0 0
S 9.4614667734 3.6417326071 1.5640692510 
S 7.8845516132 4.5521468913 7.6506323570 
Mo -4.7307740958 8.1938800163 6.0856188703 
Mo 7.8845743259 6.3730391977 -6.0872367793  0 0 0
Mo 6.3076327706 7.2834646191 -0.0009503291 
S 6.3076590264 5.4626062355 -7.6506323570  0 0 0
S 7.8845488079 6.3730299616 -1.5643562525 
S 6.3076333570 7.2834471287 4.5222204573 
S 6.3076599001 5.4626053320 -4.5222282367  0 0 0
S 7.8845482034 6.3730318501 1.5640692510 
S 6.3076330432 7.2834461343 7.6506323570 
Mo -0.0000183858 -0.0000177127 6.0856188703 
Mo 6.3076557559 9.1043384407 -6.0872367793  0 0 0
Mo 4.7307142007 10.0147638621 -0.0009503291 
S 4.7307404564 8.1939054785 -7.6506323570  0 0 0
S 6.3076302379 9.1043292046 -1.5643562525 
S 4.7307147870 10.0147463717 4.5222204573 
S 4.7307413301 8.1939045750 -4.5222282367  0 0 0
S 6.3076296335 9.1043310931 1.5640692510 
S 4.7307144733 10.0147453773 7.6506323570 

