&CONTROL
   calculation      = 'nscf'
   verbosity        = 'high'
   restart_mode     = 'from_scratch'
   wf_collect       = .true.
   outdir           = './outdir'
   pseudo_dir       = './pseudo'
/
&SYSTEM
   nbnd             = 1665
   ecutwfc          = 77.0
   ecutrho          = 539.0
   occupations      = 'tetrahedra'
   assume_isolated  = 'esm'
   esm_bc           = 'bc1'
   vdw_corr         = 'dft-d3'
   dftd3_version    = 4
   ntyp             = 3
   nat              = 193
   ibrav            = 0
/
&ELECTRONS
   electron_maxstep = 1000
   conv_thr         = 1e-06
   mixing_beta      = 0.2
   diagonalization  = 'david'
/
&IONS
/
&CELL
/

ATOMIC_SPECIES
Mo 95.95 Mo.pbe-spn-kjpaw_psl.1.0.0.UPF
S 32.06 S.pbe-n-kjpaw_psl.1.0.0.UPF
H 1.008 H.pbe-kjpaw_psl.1.0.0.UPF

K_POINTS automatic
2 2 1  0 0 0

CELL_PARAMETERS angstrom
12.60495876880469 0.00000000000000 0.00000000000000
-6.30246677944357 10.91622202271285 0.00000000000000
0.00000000000000 0.00000000000000 36.46614571815195

ATOMIC_POSITIONS angstrom
Mo 0.0000119917 1.8193638619 -9.1672481230 
Mo 1.5756136568 0.9097075315 -3.0554901653 
S 0.0000188998 1.8193822938 -4.6232556019 
S 1.5756321638 0.9096773839 -7.6014065489 
S 1.5756326175 0.9096785128 -10.7330757790 
S 0.0000189190 1.8193860094 -1.4877129945 
Mo 0.0001177510 1.8192735468 3.0553296162 
Mo 1.5756657967 0.9121362242 9.1691531664 
S -0.0020991424 1.8245650105 7.6046479029 
S 1.5756516232 0.9096713063 4.6233930201 
S 1.5756505211 0.9096212943 1.4876531421 
S 0.0026562555 1.8224979745 10.7383716738 
Mo -1.5756053507 4.5484193819 -9.1672481230 
Mo 0.0000378379 3.6387394919 -3.0554952701 
S -1.5755913433 4.5484363582 -4.6232494962 
S 0.0000148214 3.6387329039 -7.6014065489 
S 0.0000152751 3.6387340328 -10.7330757790 
S -1.5755906502 4.5484413613 -1.4877305502 
Mo -1.5756926833 4.5483683326 3.0551575971 
Mo 0.0004438305 3.6447234306 9.1718354813 
S -1.5730370701 4.5499056335 7.6056182453 
S -0.0003944728 3.6387167941 4.6228975299 
S 0.0002298649 3.6388237581 1.4877251887 
S -1.5846954807 4.5431773640 10.7415554417 
Mo -3.1512226931 7.2774749019 -9.1672481230 
Mo -1.5755910988 6.3678216792 -3.0555115988 
S -3.1512162438 7.2774954350 -4.6232578178 
S -1.5756025210 6.3677884239 -7.6014065489 
S -1.5756020673 6.3677895528 -10.7330757790 
S -3.1512127704 7.2774877076 -1.4877200710 
Mo -3.1512455835 7.2776094840 3.0553238527 
Mo -1.5702048948 6.3651733804 9.1718320546 
S -3.1477778737 7.2730514351 7.6046473507 
S -1.5758195412 6.3674414082 4.6228869827 
S -1.5754125892 6.3679234653 1.4877283770 
S -3.1471882456 7.2782045235 10.7383696266 
Mo -4.7268400355 10.0065304219 -9.1672481230 
Mo -3.1512405618 9.0968403586 -3.0554816746 
S -4.7268341792 10.0065523623 -4.6232463762 
S -3.1512198634 9.0968439439 -7.6014065489 
S -3.1512194097 9.0968450728 -10.7330757790 
S -4.7268370797 10.0065537885 -1.4877176751 
Mo -4.7268175853 10.0065385004 3.0555193073 
Mo -3.1490776084 9.0956527155 9.1691507326 
S -4.7268122489 10.0065506542 7.6010765569 
S -3.1512110371 9.0968591357 4.6233995395 
S -3.1512586930 9.0968876096 1.4876398488 
S -4.7268053390 10.0065529718 10.7359969568 
Mo 3.1512517547 1.8193638619 -9.1672481230 
Mo 4.7269020221 0.9097289540 -3.0554823951 
S 3.1512612351 1.8193882564 -4.6232320683 
S 4.7268719268 0.9096773839 -7.6014065489 
S 4.7268723805 0.9096785128 -10.7330757790 
S 3.1512592485 1.8193890201 -1.4877261251 
Mo 3.1511949163 1.8192659081 3.0553256754 
Mo 4.7280457514 0.9103612763 9.1703869859 
S 3.1534322255 1.8245833514 7.6046579196 
S 4.7267464240 0.9095955637 4.6231262170 
S 4.7268632489 0.9096669267 1.4876418523 
S 3.1486751693 1.8224931770 10.7383791167 
Mo 1.5756344123 4.5484193819 -9.1672481230 
Mo 3.1512756394 3.6387769522 -3.0554814834 
S 1.5756504879 4.5484423799 -4.6232390542 
S 3.1512545844 3.6387329039 -7.6014065489 
S 3.1512550381 3.6387340328 -10.7330757790 
S 1.5756466253 4.5484431864 -1.4877251801 
Mo 1.5756554399 4.5487758750 3.0556989974 
Mo 3.1508721966 3.6447350777 9.1718648323 
S 1.5756695617 4.5259869550 7.5783436610 
S 3.1517117199 3.6387108631 4.6228826273 
S 3.1510863607 3.6388205395 1.4877406735 
S 1.5756377081 4.6033005199 10.7439724172 
Mo 0.0000170699 7.2774749019 -9.1672481230 
Mo 1.5756764447 6.3678236689 -3.0554877708 
S 0.0000381981 7.2774979204 -4.6232454413 
S 1.5756372420 6.3677884239 -7.6014065489 
S 1.5756376957 6.3677895528 -10.7330757790 
S 0.0000328088 7.2774946042 -1.4877307940 
Mo 0.0003453486 7.2773053561 3.0556965164 
Mo 1.5756036896 6.3677759574 9.0914848471 
S -0.0193961149 7.2887266218 7.5783411399 
S 1.5756628810 6.3677969855 4.6237228385 
S 1.5756640028 6.3677940261 1.4874829422 
S 0.0475410180 7.2500462599 10.7439690784 
Mo -1.5756002725 10.0065304219 -9.1672481230 
Mo 0.0000873425 9.0968676911 -3.0554912329 
S -1.5755883952 10.0065504530 -4.6232240150 
S 0.0000198996 9.0968439439 -7.6014065489 
S 0.0000203533 9.0968450728 -10.7330757790 
S -1.5755859047 10.0065492576 -1.4877362381 
Mo -1.5757076337 10.0065170599 3.0553209490 
Mo 0.0050222310 9.0935198587 9.1718607544 
S -1.5699934482 10.0058156920 7.6046569084 
S 0.0002324361 9.0972396108 4.6228790275 
S 0.0000163479 9.0966445630 1.4877362963 
S -1.5741807732 10.0027397658 10.7383771866 
Mo 6.3024915177 1.8193638619 -9.1672481230 
Mo 7.8781001445 0.9096521684 -3.0554919963 
S 6.3025008696 1.8193826232 -4.6232480596 
S 7.8781116898 0.9096773839 -7.6014065489 
S 7.8781121435 0.9096785128 -10.7330757790 
S 6.3025042007 1.8193849068 -1.4877147524 
Mo 6.3024785786 1.8193453889 3.0554722486 
Mo 7.8781422116 0.9130255237 9.1657690553 
S 6.3011452270 1.8185920928 7.5971621006 
S 7.8781386776 0.9096360671 4.6231670369 
S 7.8781384063 0.9097491438 1.4876040146 
S 6.3037374763 1.8200870382 10.7367682473 
Mo 4.7268741753 4.5484193819 -9.1672481230 
Mo 6.3024679138 3.6387501714 -3.0554895197 
S 4.7268748770 4.5484386753 -4.6232519432 
S 6.3024943474 3.6387329039 -7.6014065489 
S 6.3024948011 3.6387340328 -10.7330757790 
S 4.7268770533 4.5484432419 -1.4877137856 
Mo 4.7270074411 4.5483594772 3.0551573165 
Mo 6.3054041135 3.6370939524 9.1657698026 
S 4.7243644555 4.5499321524 7.6056597820 
S 6.3024784834 3.6387643495 4.6231737153 
S 6.3025721521 3.6387078366 1.4875972401 
S 4.7360504565 4.5431439097 10.7415794860 
Mo 3.1512568329 7.2774749019 -9.1672481230 
Mo 4.7268384135 6.3678043337 -3.0554959052 
S 3.1512606125 7.2774972547 -4.6232589675 
S 4.7268770050 6.3677884239 -7.6014065489 
S 4.7268774587 6.3677895528 -10.7330757790 
S 3.1512629079 7.2774963749 -1.4877081835 
Mo 3.1509824198 7.2773056829 3.0556954863 
Mo 4.7214899196 6.3651763870 9.1719180958 
S 3.1707076914 7.2887077099 7.5784137064 
S 4.7271418145 6.3674366051 4.6228965800 
S 4.7267372324 6.3679203234 1.4877251638 
S 3.1035073748 7.2499123810 10.7442486904 
Mo 1.5756394905 10.0065304219 -9.1672481230 
Mo 3.1512330605 9.0968514907 -3.0554878870 
S 1.5756499830 10.0065443759 -4.6232632674 
S 3.1512596626 9.0968439439 -7.6014065489 
S 3.1512601163 9.0968450728 -10.7330757790 
S 1.5756503041 10.0065459699 -1.4877044377 
Mo 1.5756628199 10.0066610807 3.0551545889 
Mo 3.1462999949 9.0934929939 9.1719174748 
S 1.5756924904 10.0036065409 7.6056576622 
S 3.1510958203 9.0972346452 4.6228942125 
S 3.1513156318 9.0966426686 1.4877268166 
S 1.5756546462 10.0171202643 10.7415769120 
Mo 9.4537312807 1.8193638619 -9.1672481230 
Mo 11.0293863460 0.9096952246 -3.0554894007 
S 9.4537395970 1.8193770750 -4.6232328036 
S 11.0293514528 0.9096773839 -7.6014065489 
S 11.0293519066 0.9096785128 -10.7330757790 
S 9.4537393632 1.8193794783 -1.4877366147 
Mo 9.4537919517 1.8193501628 3.0554665709 
Mo 11.0282409043 0.9103544050 9.1703903574 
S 9.4551487991 1.8185886912 7.5971669143 
S 11.0295245819 0.9096001633 4.6231317619 
S 11.0294076322 0.9096677857 1.4876422515 
S 9.4525538524 1.8200928810 10.7367626376 
Mo 7.8781139383 4.5484193819 -9.1672481230 
Mo 9.4537539161 3.6387607911 -3.0554933032 
S 7.8781175448 4.5484378232 -4.6232366318 
S 9.4537341104 3.6387329039 -7.6014065489 
S 9.4537345641 3.6387340328 -10.7330757790 
S 7.8781194018 4.5484411585 -1.4877377057 
Mo 7.8781372310 4.5484693824 3.0554643467 
Mo 9.4508989469 3.6371014197 9.1657673024 
S 7.8781467591 4.5500409660 7.5971673811 
S 9.4537971286 3.6387662752 4.6231596483 
S 9.4537028409 3.6387098410 1.4876110802 
S 7.8781535300 4.5470429362 10.7367623727 
Mo 6.3024965959 7.2774749019 -9.1672481230 
Mo 7.8781361655 6.3678242352 -3.0555014130 
S 6.3024973331 7.2774953556 -4.6232392528 
S 7.8781167680 6.3677884239 -7.6014065489 
S 7.8781172217 6.3677895528 -10.7330757790 
S 6.3024989866 7.2774929744 -1.4877349119 
Mo 6.3025683580 7.2776018876 3.0553279645 
Mo 7.8781429930 6.3664967667 9.1703903644 
S 6.2990727600 7.2730237168 7.6046784993 
S 7.8781418822 6.3679716970 4.6231226653 
S 7.8781378203 6.3678345998 1.4876441272 
S 6.2985339305 7.2782151110 10.7383939038 
Mo 4.7268792535 10.0065304219 -9.1672481230 
Mo 6.3025111524 9.0968738021 -3.0554915260 
S 4.7268840634 10.0065452125 -4.6232380477 
S 6.3024994256 9.0968439439 -7.6014065489 
S 6.3024998793 9.0968450728 -10.7330757790 
S 4.7268847312 10.0065459141 -1.4877283294 
Mo 4.7270309121 10.0065187432 3.0553291417 
Mo 6.3004121334 9.0956440752 9.1691596253 
S 4.7213116413 10.0057965191 7.6046778670 
S 6.3025352425 9.0968575005 4.6233926728 
S 6.3025772113 9.0968832247 1.4876541717 
S 4.7255366161 10.0027346738 10.7383942837 
H 1.5767739389 6.3684420862 11.7441320906 

