&CONTROL
   calculation      = 'relax'
   restart_mode     = 'from_scratch'
   wf_collect       = .true.
   nstep            = 1000
   tstress          = .false.
   tprnfor          = .true.
   outdir           = './outdir'
   pseudo_dir       = './pseudo'
/
&SYSTEM
   ecutwfc          = 77.0
   ecutrho          = 539.0
   nosym            = .true.
   occupations      = 'smearing'
   degauss          = 0.01
   smearing         = 'gaussian'
   assume_isolated  = 'esm'
   esm_bc           = 'bc1'
   vdw_corr         = 'dft-d3'
   dftd3_version    = 4
   ntyp             = 3
   nat              = 147
   ibrav            = 0
/
&ELECTRONS
   electron_maxstep = 1000
   conv_thr         = 1e-06
   mixing_beta      = 0.2
   diagonalization  = 'david'
/
&IONS
/
&CELL
/

ATOMIC_SPECIES
Mo 95.95 Mo.pbe-spn-kjpaw_psl.1.0.0.UPF
S 32.06 S.pbe-n-kjpaw_psl.1.0.0.UPF
Pd 106.42 Pd.pbe-spn-kjpaw_psl.1.0.0.UPF

K_POINTS automatic
2 2 1  0 0 0

CELL_PARAMETERS angstrom
12.61532217525308 0.00000000000000 0.00000000000000
-6.30767370294872 10.92519700214573 0.00000000000000
0.00000000000000 0.00000000000000 30.30125956094956

ATOMIC_POSITIONS angstrom
Mo 1.5751807302 2.6886802179 6.0689578203 
Mo 1.5769197498 0.9104407117 -6.0872367793  0 0 0
Mo -0.0000057474 1.8210543642 -0.0006182626 
S 0.0000044503 0.0000077495 -7.6506323570  0 0 0
S 1.5766739489 0.9112358648 -1.5669272927 
S -0.0102070258 1.8139868748 4.4967298735 
S 0.0000053241 0.0000068460 -4.5222282367  0 0 0
S 1.5772503585 0.9099050141 1.5653807963 
S -0.0074966478 1.7974759998 7.6383727763 
Mo -0.0140020140 5.4608329061 6.1395451399 
Mo 0.0000011799 3.6417399547 -6.0872367793  0 0 0
Mo -1.5765491675 4.5523971042 -0.0001925515 
S -1.5769141197 2.7313069925 -7.6506323570  0 0 0
S 0.0000107656 3.6419287702 -1.5657624941 
S -1.5603689258 4.5647865519 4.5493223634 
S -1.5769132459 2.7313060890 -4.5222282367  0 0 0
S 0.0006691316 3.6421600220 1.5676274339 
S -1.6604907533 4.5076186614 7.7072304903 
Mo -1.5862515822 8.2053187021 6.0817541660 
Mo -1.5769173901 6.3730391977 -6.0872367793  0 0 0
Mo -3.1537774655 7.2832712355 -0.0021627358 
S -3.1538326896 5.4626062355 -7.6506323570  0 0 0
S -1.5765608147 6.3723914298 -1.5667366280 
S -3.1540379050 7.2798926033 4.5113005526 
S -3.1538318159 5.4626053320 -4.5222282367  0 0 0
S -1.5770415135 6.3736972608 1.5662108983 
S -3.1584924252 7.2873467791 7.6467951596 
Mo 3.1565681948 -0.0049874042 6.0634428493 
Mo -3.1538359601 9.1043384407 -6.0872367793  0 0 0
Mo -4.7307176423 10.0148510937 -0.0025746074 
S -4.7307512596 8.1939054785 -7.6506323570  0 0 0
S -3.1536911951 9.1041688007 -1.5678363212 
S -4.7304179540 10.0074183809 4.4993632271 
S -4.7307503859 8.1939045750 -4.5222282367  0 0 0
S -3.1539432595 9.1041985039 1.5642390379 
S -4.7307432875 10.0155233141 7.6339212498 
Mo 4.7352973334 2.7220130623 6.0838698329 
Mo 4.7307503218 0.9104407117 -6.0872367793  0 0 0
Mo 3.1537801078 1.8211618584 -0.0012652497 
S 3.1538350223 0.0000077495 -7.6506323570  0 0 0
S 4.7307670672 0.9107116240 -1.5671713780 
S 3.1627684185 1.8165161553 4.4983625825 
S 3.1538358961 0.0000068460 -4.5222282367  0 0 0
S 4.7308782156 0.9097575106 1.5644735201 
S 3.1576650152 1.7979162748 7.6397085696 
Mo 3.1642945504 5.4604877397 6.1396594134 
Mo 3.1538317519 3.6417399547 -6.0872367793  0 0 0
Mo 1.5768485367 4.5524808789 -0.0004326942 
S 1.5769164523 2.7313069925 -7.6506323570  0 0 0
S 3.1534630099 3.6421769604 -1.5662117400 
S 1.5749909038 4.5676230294 4.5820355297 
S 1.5769173261 2.7313060890 -4.5222282367  0 0 0
S 3.1531500286 3.6421080904 1.5672817721 
S 1.5746654033 4.4187734354 7.6978848049 
Mo 1.5760320570 8.2189658373 6.0906951727 
Mo 1.5769131819 6.3730391977 -6.0872367793  0 0 0
Mo 0.0001633393 7.2829927332 -0.0012526804 
S -0.0000021176 5.4626062355 -7.6506323570  0 0 0
S 1.5769735679 6.3727256876 -1.5665594308 
S 0.0012506893 7.2645930096 4.5542196380 
S -0.0000012439 5.4626053320 -4.5222282367  0 0 0
S 1.5768880184 6.3732190793 1.5669962568 
S -0.0057543311 7.3873797580 7.6943158218 
Mo 6.3075297959 0.0032080577 6.0672533713 
Mo -0.0000053881 9.1043384407 -6.0872367793  0 0 0
Mo -1.5766906948 10.0143709500 -0.0022538825 
S -1.5769206876 8.1939054785 -7.6506323570  0 0 0
S 0.0007064087 9.1038985986 -1.5667247164 
S -1.5739419974 10.0092157385 4.4997045381 
S -1.5769198139 8.1939045750 -4.5222282367  0 0 0
S -0.0005579810 9.1030595778 1.5661152728 
S -1.5813088867 10.0283556274 7.6413540256 
Mo 7.8833359506 2.7313803746 6.0713720182 
Mo 7.8845808939 0.9104407117 -6.0872367793  0 0 0
Mo 6.3076003268 1.8210631229 -0.0013852590 
S 6.3076655943 0.0000077495 -7.6506323570  0 0 0
S 7.8849770371 0.9102460306 -1.5660187313 
S 6.3038187452 1.8259999252 4.5045874186 
S 6.3076664681 0.0000068460 -4.5222282367  0 0 0
S 7.8840324179 0.9104724825 1.5661036801 
S 6.3152934419 1.8118583713 7.6442404454 
Mo 6.3163118650 5.4617658906 6.0860971947 
Mo 6.3076623239 3.6417399547 -6.0872367793  0 0 0
Mo 4.7302370878 4.5523760125 -0.0006526948 
S 4.7307470244 2.7313069925 -7.6506323570  0 0 0
S 6.3075701853 3.6422579149 -1.5661102226 
S 4.7095800840 4.5647749145 4.5514033429 
S 4.7307478981 2.7313060890 -4.5222282367  0 0 0
S 6.3066656180 3.6421394286 1.5667406621 
S 4.8142478254 4.5077552998 7.7078352109 
Mo 4.7386113887 8.2047665116 6.0830045996 
Mo 4.7307437539 6.3730391977 -6.0872367793  0 0 0
Mo 3.1536584106 7.2830623841 -0.0010518810 
S 3.1538284544 5.4626062355 -7.6506323570  0 0 0
S 4.7302945071 6.3726586989 -1.5667960611 
S 3.1514814302 7.2633874926 4.5549054003 
S 3.1538293281 5.4626053320 -4.5222282367  0 0 0
S 4.7308232210 6.3733198510 1.5662061463 
S 3.1573803185 7.3865154507 7.6949191850 
Mo 9.4605918461 0.0026979153 6.0649835307 
Mo 3.1538251839 9.1043384407 -6.0872367793  0 0 0
Mo 1.5768364514 10.0143512698 -0.0004258550 
S 1.5769098844 8.1939054785 -7.6506323570  0 0 0
S 3.1533424958 9.1041294389 -1.5663061188 
S 1.5755246386 10.0132766404 4.5006513451 
S 1.5769107581 8.1939045750 -4.5222282367  0 0 0
S 3.1539342485 9.1030928842 1.5665604381 
S 1.5775526265 10.0457047168 7.6448487076 
Mo -1.5833217902 2.7219734113 6.0809153676 
Mo 11.0384114659 0.9104407117 -6.0872367793  0 0 0
Mo 9.4614347644 1.8211084780 -0.0003461804 
S 9.4614961663 0.0000077495 -7.6506323570  0 0 0
S 11.0381257676 0.9108122460 -1.5661483083 
S 9.4620811105 1.8258124947 4.5022498379 
S 9.4614970401 0.0000068460 -4.5222282367  0 0 0
S 11.0382849491 0.9097123428 1.5655240578 
S 9.4535155821 1.8114414887 7.6411926114 
Mo -3.1649154294 5.4610749356 6.0855530667 
Mo 9.4614928959 3.6417399547 -6.0872367793  0 0 0
Mo 7.8845361372 4.5523287158 -0.0003516753 
S 7.8845775964 2.7313069925 -7.6506323570  0 0 0
S 9.4617543145 3.6419125376 -1.5655061021 
S 7.8820594846 4.5572486033 4.5091140440 
S 7.8845784701 2.7313060890 -4.5222282367  0 0 0
S 9.4621138114 3.6425816861 1.5673619616 
S 7.8833564625 4.5439873186 7.6523160488 
Mo -4.7312234925 8.1929943041 6.0748969149 
Mo 7.8845743259 6.3730391977 -6.0872367793  0 0 0
Mo 6.3075263624 7.2832155727 -0.0020612249 
S 6.3076590264 5.4626062355 -7.6506323570  0 0 0
S 7.8845266882 6.3722731225 -1.5670927317 
S 6.3054591941 7.2801545516 4.5123484000 
S 6.3076599001 5.4626053320 -4.5222282367  0 0 0
S 7.8845519600 6.3738966142 1.5652286916 
S 6.3115989787 7.2877477126 7.6480008950 
Mo -0.0035389633 -0.0060851879 6.0630450374 
Mo 6.3076557559 9.1043384407 -6.0872367793  0 0 0
Mo 4.7304381658 10.0144322425 -0.0014615568 
S 4.7307404564 8.1939054785 -7.6506323570  0 0 0
S 6.3071922264 9.1043068565 -1.5674705185 
S 4.7274121372 10.0066805440 4.4994047227 
S 4.7307413301 8.1939045750 -4.5222282367  0 0 0
S 6.3080996959 9.1040443967 1.5644808079 
S 4.7331784253 10.0287261288 7.6406773099 
Pd 3.0887476942 5.4858349627 9.0490060561 
Pd 0.0703418671 5.4919346376 9.0487589820 
Pd 4.7350000000 2.7220000000 9.1640000000 

