&CONTROL
   calculation      = 'nscf'
   verbosity        = 'high'
   restart_mode     = 'from_scratch'
   wf_collect       = .true.
   outdir           = './outdir'
   pseudo_dir       = './pseudo'
/
&SYSTEM
   nbnd             = 1267
   ecutwfc          = 77.0
   ecutrho          = 539.0
   occupations      = 'tetrahedra'
   assume_isolated  = 'esm'
   esm_bc           = 'bc1'
   vdw_corr         = 'dft-d3'
   dftd3_version    = 4
   ntyp             = 4
   nat              = 146
   ibrav            = 0
/
&ELECTRONS
   electron_maxstep = 1000
   conv_thr         = 1e-06
   mixing_beta      = 0.2
   diagonalization  = 'david'
/
&IONS
/
&CELL
/

ATOMIC_SPECIES
Mo 95.95 Mo.pbe-spn-kjpaw_psl.1.0.0.UPF
S 32.06 S.pbe-n-kjpaw_psl.1.0.0.UPF
Pd 106.42 Pd.pbe-spn-kjpaw_psl.1.0.0.UPF
H 1.008 H.pbe-kjpaw_psl.1.0.0.UPF

K_POINTS automatic
2 2 1  0 0 0

CELL_PARAMETERS angstrom
12.61532217525308 0.00000000000000 0.00000000000000
-6.30767370294872 10.92519700214573 0.00000000000000
0.00000000000000 0.00000000000000 30.30125956094956

ATOMIC_POSITIONS angstrom
Mo 1.5965309698 2.7062360170 6.0713638963 
Mo 1.5769197498 0.9104407117 -6.0872367793 
Mo 0.0032700311 1.8191596973 -0.0136058610 
S 0.0000044503 0.0000077495 -7.6506323570 
S 1.5783469885 0.9095302751 -1.5812746546 
S 0.0302770259 1.8069810415 4.4924230815 
S 0.0000053241 0.0000068460 -4.5222282367 
S 1.5820112494 0.9078870181 1.5506920294 
S 0.0131301854 1.7937097148 7.6317700531 
Mo 0.0106714837 5.4472889368 6.0670210966 
Mo 0.0000011799 3.6417399547 -6.0872367793 
Mo -1.5736624799 4.5504392723 -0.0147056186 
S -1.5769141197 2.7313069925 -7.6506323570 
S 0.0022048727 3.6391044631 -1.5799147245 
S -1.5494661375 4.5374518938 4.4886432991 
S -1.5769132459 2.7313060890 -4.5222282367 
S 0.0052503346 3.6413030102 1.5527341466 
S -1.5676747854 4.5308057312 7.6309602517 
Mo -1.5525649656 8.1798271264 6.0586141416 
Mo -1.5769173901 6.3730391977 -6.0872367793 
Mo -3.1507755834 7.2815263660 -0.0184488708 
S -3.1538326896 5.4626062355 -7.6506323570 
S -1.5740667415 6.3696365315 -1.5826333222 
S -3.1284349960 7.2698501217 4.4913158572 
S -3.1538318159 5.4626053320 -4.5222282367 
S -1.5735315162 6.3728031916 1.5494608548 
S -3.1265081281 7.2668482954 7.6265140667 
Mo 3.1799676567 -0.0174784885 6.0598995343 
Mo -3.1538359601 9.1043384407 -6.0872367793 
Mo -4.7277165920 10.0129956773 -0.0172804292 
S -4.7307512596 8.1939054785 -7.6506323570 
S -3.1514025915 9.1029091539 -1.5835517089 
S -4.7027114471 9.9985620676 4.4914927205 
S -4.7307503859 8.1939045750 -4.5222282367 
S -3.1499399598 9.1020638812 1.5480606964 
S -4.7041367796 9.9993822032 7.6288902992 
Mo 4.7631229337 2.7036764450 6.0703416256 
Mo 4.7307503218 0.9104407117 -6.0872367793 
Mo 3.1569274355 1.8192437284 -0.0176010926 
S 3.1538350223 0.0000077495 -7.6506323570 
S 4.7345250557 0.9096967871 -1.5823815435 
S 3.1800475925 1.8082009067 4.5008400345 
S 3.1538358961 0.0000068460 -4.5222282367 
S 4.7329574556 0.9077201671 1.5497136914 
S 3.1797260002 1.7958977658 7.6348624528 
Mo 3.1771891181 5.4490953713 6.1426782989 
Mo 3.1538317519 3.6417399547 -6.0872367793 
Mo 1.5802721451 4.5506302501 -0.0168621292 
S 1.5769164523 2.7313069925 -7.6506323570 
S 3.1564948273 3.6402730024 -1.5826785335 
S 1.6232975065 4.5494622786 4.5400111067 
S 1.5769173261 2.7313060890 -4.5222282367 
S 3.1570767142 3.6396705014 1.5498631840 
S 1.5162948794 4.4915453983 7.6757630605 
Mo 1.5954990416 8.1922890782 6.0670225875 
Mo 1.5769131819 6.3730391977 -6.0872367793 
Mo 0.0029960445 7.2817162587 -0.0184818969 
S -0.0000021176 5.4626062355 -7.6506323570 
S 1.5801057434 6.3711738099 -1.5829659966 
S 0.0266364686 7.2680738929 4.4980949549 
S -0.0000012439 5.4626053320 -4.5222282367 
S 1.5794950476 6.3715229040 1.5494642795 
S 0.0189916787 7.2724876347 7.6317730297 
Mo 6.3350954356 -0.0148338351 6.0543305937 
Mo -0.0000053881 9.1043384407 -6.0872367793 
Mo -1.5737291437 10.0130600751 -0.0184473119 
S -1.5769206876 8.1939054785 -7.6506323570 
S 0.0043464260 9.1035351570 -1.5826301644 
S -1.5524410850 9.9995614763 4.4913159466 
S -1.5769198139 8.1939045750 -4.5222282367 
S 0.0018687096 9.1014860679 1.5494639551 
S -1.5488781809 9.9993914268 7.6265129032 
Mo 7.9128046944 2.7149892140 6.0559258874 
Mo 7.8845808939 0.9104407117 -6.0872367793 
Mo 6.3103681793 1.8194089832 -0.0150261519 
S 6.3076655943 0.0000077495 -7.6506323570 
S 7.8885225667 0.9093557562 -1.5787628209 
S 6.3303889139 1.8082801171 4.4917018920 
S 6.3076664681 0.0000068460 -4.5222282367 
S 7.8864058428 0.9081025566 1.5528060862 
S 6.3486190526 1.7929748782 7.6311543182 
Mo 6.3477569108 5.4483491916 6.0703390654 
Mo 6.3076623239 3.6417399547 -6.0872367793 
Mo 4.7332032537 4.5507308382 -0.0169344478 
S 4.7307470244 2.7313069925 -7.6506323570 
S 6.3108229250 3.6398900276 -1.5806277108 
S 4.7334437709 4.5505921798 4.5412070789 
S 4.7307478981 2.7313060890 -4.5222282367 
S 6.3088131563 3.6410512805 1.5522250440 
S 4.8344165270 4.4922978722 7.6691309020 
Mo 4.7622436674 8.1894183870 6.0713630050 
Mo 4.7307437539 6.3730391977 -6.0872367793 
Mo 3.1568221194 7.2813022090 -0.0168590328 
S 3.1538284544 5.4626062355 -7.6506323570 
S 4.7333243216 6.3714319400 -1.5826778675 
S 3.1793487059 7.2446237651 4.5400100713 
S 3.1538293281 5.4626053320 -4.5222282367 
S 4.7341379801 6.3712258415 1.5498645415 
S 3.1760066016 7.3662448560 7.6757658263 
Mo 9.4880096933 -0.0135218301 6.0555219002 
Mo 3.1538251839 9.1043384407 -6.0872367793 
Mo 1.5800159311 10.0127853701 -0.0147013421 
S 1.5769098844 8.1939054785 -7.6506323570 
S 3.1571885669 9.1037135923 -1.5799113078 
S 1.6033686631 9.9983269040 4.4886437335 
S 1.5769107581 8.1939045750 -4.5222282367 
S 3.1568074215 9.0999757114 1.5527384970 
S 1.6000197430 10.0174194522 7.6309612023 
Mo -1.5519606204 2.7150804199 6.0555217232 
Mo 11.0384114659 0.9104407117 -6.0872367793 
Mo 9.4646341151 1.8190380156 -0.0123907198 
S 9.4614961663 0.0000077495 -7.6506323570 
S 11.0408110156 0.9090313414 -1.5777918023 
S 9.4883406190 1.8053518952 4.4884119877 
S 9.4614970401 0.0000068460 -4.5222282367 
S 11.0426167186 0.9079911380 1.5542225923 
S 9.4886984163 1.8051455374 7.6248151320 
Mo -3.1272829649 5.4462446732 6.0543294759 
Mo 9.4614928959 3.6417399547 -6.0872367793 
Mo 7.8871770039 4.5505272608 -0.0150280001 
S 7.8845775964 2.7313069925 -7.6506323570 
S 9.4643808204 3.6388315041 -1.5787663121 
S 7.9068261616 4.5387578705 4.4917003183 
S 7.8845784701 2.7313060890 -4.5222282367 
S 9.4644110844 3.6412924791 1.5528034588 
S 7.9291967435 4.5306229192 7.6311513763 
Mo -4.7025569134 8.1799866483 6.0598963673 
Mo 7.8845743259 6.3730391977 -6.0872367793 
Mo 6.3105957900 7.2815727402 -0.0176009701 
S 6.3076590264 5.4626062355 -7.6506323570 
S 7.8870846005 6.3701048921 -1.5823840719 
S 6.3317231854 7.2670685415 4.5008382667 
S 6.3076599001 5.4626053320 -4.5222282367 
S 7.8880141525 6.3724493465 1.5497122152 
S 6.3422197471 7.2735004951 7.6348571120 
Mo 0.0269977493 -0.0155993424 6.0562333481 
Mo 6.3076557559 9.1043384407 -6.0872367793 
Mo 4.7338371667 10.0127652488 -0.0136035380 
S 4.7307404564 8.1939054785 -7.6506323570 
S 6.3091355455 9.1035232926 -1.5812727620 
S 4.7578899732 9.9954635842 4.4924237177 
S 4.7307413301 8.1939045750 -4.5222282367 
S 6.3123940752 9.1011708958 1.5506931646 
S 4.7608116158 10.0169463581 7.6317702549 
Pd 3.2021277580 5.4346828404 9.0611409158 
H 3.3667702797 5.3395738354 10.6465935116 

