&CONTROL
   calculation      = 'nscf'
   verbosity        = 'high'
   restart_mode     = 'from_scratch'
   wf_collect       = .true.
   outdir           = './outdir'
   pseudo_dir       = './pseudo'
/
&SYSTEM
   nbnd             = 1683
   ecutwfc          = 77.0
   ecutrho          = 539.0
   occupations      = 'tetrahedra'
   assume_isolated  = 'esm'
   esm_bc           = 'bc1'
   vdw_corr         = 'dft-d3'
   dftd3_version    = 4
   ntyp             = 4
   nat              = 194
   ibrav            = 0
/
&ELECTRONS
   electron_maxstep = 1000
   conv_thr         = 1e-06
   mixing_beta      = 0.2
   diagonalization  = 'david'
/
&IONS
/
&CELL
/

ATOMIC_SPECIES
Mo 95.95 Mo.pbe-spn-kjpaw_psl.1.0.0.UPF
S 32.06 S.pbe-n-kjpaw_psl.1.0.0.UPF
Pd 106.42 Pd.pbe-spn-kjpaw_psl.1.0.0.UPF
H 1.008 H.pbe-kjpaw_psl.1.0.0.UPF

K_POINTS automatic
2 2 1  0 0 0

CELL_PARAMETERS angstrom
12.60495876880469 0.00000000000000 0.00000000000000
-6.30246677944357 10.91622202271285 0.00000000000000
0.00000000000000 0.00000000000000 36.46614571815195

ATOMIC_POSITIONS angstrom
Mo 0.0000119917 1.8193638619 -9.1672481230 
Mo 1.5756136568 0.9097075315 -3.0554901653 
S 0.0000188998 1.8193822938 -4.6232556019 
S 1.5756321638 0.9096773839 -7.6014065489 
S 1.5756326175 0.9096785128 -10.7330757790 
S 0.0000189190 1.8193860094 -1.4877129945 
Mo -0.0003312829 1.8193811007 3.0560415302 
Mo 1.5665035038 0.9031844040 9.1586911592 
S -0.0022642435 1.8202930816 7.5862827533 
S 1.5759782089 0.9100862175 4.6227213643 
S 1.5757996802 0.9102523110 1.4881011361 
S -0.0097625994 1.8007907251 10.7345357802 
Mo -1.5756053507 4.5484193819 -9.1672481230 
Mo 0.0000378379 3.6387394919 -3.0554952701 
S -1.5755913433 4.5484363582 -4.6232494962 
S 0.0000148214 3.6387329039 -7.6014065489 
S 0.0000152751 3.6387340328 -10.7330757790 
S -1.5755906502 4.5484413613 -1.4877305502 
Mo -1.5753299157 4.5486614702 3.0563339551 
Mo -0.0170971856 3.6217135834 9.1715178980 
S -1.5747769784 4.5500576271 7.5936156643 
S 0.0010153375 3.6393297431 4.6234970961 
S 0.0004476736 3.6388643589 1.4882427773 
S -1.5808948973 4.5485608675 10.7373528551 
Mo -3.1512226931 7.2774749019 -9.1672481230 
Mo -1.5755910988 6.3678216792 -3.0555115988 
S -3.1512162438 7.2774954350 -4.6232578178 
S -1.5756025210 6.3677884239 -7.6014065489 
S -1.5756020673 6.3677895528 -10.7330757790 
S -3.1512127704 7.2774877076 -1.4877200710 
Mo -3.1506247198 7.2776112270 3.0559927164 
Mo -1.5896115609 6.3679957607 9.1691956769 
S -3.1521736774 7.2746102880 7.5869346574 
S -1.5749312358 6.3680819666 4.6242529814 
S -1.5754499467 6.3676607980 1.4878656124 
S -3.1669357398 7.2817253994 10.7313862330 
Mo -4.7268400355 10.0065304219 -9.1672481230 
Mo -3.1512405618 9.0968403586 -3.0554816746 
S -4.7268341792 10.0065523623 -4.6232463762 
S -3.1512198634 9.0968439439 -7.6014065489 
S -3.1512194097 9.0968450728 -10.7330757790 
S -4.7268370797 10.0065537885 -1.4877176751 
Mo -4.7267766056 10.0065225737 3.0557663392 
Mo -3.1522326459 9.0974799220 9.1561404180 
S -4.7265803639 10.0064324441 7.5841648275 
S -3.1511184273 9.0968151622 4.6234338415 
S -3.1510915124 9.0968003508 1.4877624851 
S -4.7243090977 10.0051183763 10.7293057020 
Mo 3.1512517547 1.8193638619 -9.1672481230 
Mo 4.7269020221 0.9097289540 -3.0554823951 
S 3.1512612351 1.8193882564 -4.6232320683 
S 4.7268719268 0.9096773839 -7.6014065489 
S 4.7268723805 0.9096785128 -10.7330757790 
S 3.1512592485 1.8193890201 -1.4877261251 
Mo 3.1518651486 1.8203883495 3.0557182984 
Mo 4.7265180019 0.9109529719 9.1570405272 
S 3.1473349792 1.8297737454 7.5947799058 
S 4.7270332301 0.9098972250 4.6242175110 
S 4.7267962914 0.9094249565 1.4880635969 
S 3.1490745715 1.7879841100 10.7372077351 
Mo 1.5756344123 4.5484193819 -9.1672481230 
Mo 3.1512756394 3.6387769522 -3.0554814834 
S 1.5756504879 4.5484423799 -4.6232390542 
S 3.1512545844 3.6387329039 -7.6014065489 
S 3.1512550381 3.6387340328 -10.7330757790 
S 1.5756466253 4.5484431864 -1.4877251801 
Mo 1.5766888836 4.5489864660 3.0555662484 
Mo 3.1646321333 3.6304195546 9.1831601862 
S 1.5799043898 4.5665630295 7.6458723674 
S 3.1512393295 3.6394879202 4.6252736867 
S 3.1520829528 3.6393640492 1.4873033187 
S 1.5565461697 4.4370394697 10.7969056299 
Mo 0.0000170699 7.2774749019 -9.1672481230 
Mo 1.5756764447 6.3678236689 -3.0554877708 
S 0.0000381981 7.2774979204 -4.6232454413 
S 1.5756372420 6.3677884239 -7.6014065489 
S 1.5756376957 6.3677895528 -10.7330757790 
S 0.0000328088 7.2774946042 -1.4877307940 
Mo -0.0000444836 7.2775399522 3.0558364844 
Mo 1.5767774631 6.3671899466 9.2298692301 
S 0.0242421732 7.2635422784 7.6375872032 
S 1.5757698823 6.3677428551 4.6248934582 
S 1.5754305263 6.3679348098 1.4876146011 
S -0.0948477686 7.3323010703 10.7871113473 
Mo -1.5756002725 10.0065304219 -9.1672481230 
Mo 0.0000873425 9.0968676911 -3.0554912329 
S -1.5755883952 10.0065504530 -4.6232240150 
S 0.0000198996 9.0968439439 -7.6014065489 
S 0.0000203533 9.0968450728 -10.7330757790 
S -1.5755859047 10.0065492576 -1.4877362381 
Mo -1.5753926349 10.0059858931 3.0559920171 
Mo -0.0071146381 9.1089521816 9.1691947118 
S -1.5735483843 10.0088635573 7.5869348761 
S 0.0001283082 9.0961600201 4.6242540086 
S 0.0002294509 9.0968187325 1.4878658996 
S -1.5870891872 10.0180886173 10.7313856988 
Mo 6.3024915177 1.8193638619 -9.1672481230 
Mo 7.8781001445 0.9096521684 -3.0554919963 
S 6.3025008696 1.8193826232 -4.6232480596 
S 7.8781116898 0.9096773839 -7.6014065489 
S 7.8781121435 0.9096785128 -10.7330757790 
S 6.3025042007 1.8193849068 -1.4877147524 
Mo 6.3019165191 1.8200974924 3.0554571840 
Mo 7.8871742395 0.9062673391 9.1634035098 
S 6.3084374870 1.8267898398 7.5952569679 
S 7.8778046866 0.9099743388 4.6227797176 
S 7.8779841692 0.9097884385 1.4880795355 
S 6.3091350706 1.8024674736 10.7343423732 
Mo 4.7268741753 4.5484193819 -9.1672481230 
Mo 6.3024679138 3.6387501714 -3.0554895197 
S 4.7268748770 4.5484386753 -4.6232519432 
S 6.3024943474 3.6387329039 -7.6014065489 
S 6.3024948011 3.6387340328 -10.7330757790 
S 4.7268770533 4.5484432419 -1.4877137856 
Mo 4.7266248258 4.5485924884 3.0570643393 
Mo 6.3006182184 3.6398700319 9.1720078162 
S 4.7259442975 4.5490090268 7.5842299551 
S 6.3020639055 3.6390118733 4.6244486151 
S 6.3015444586 3.6393099201 1.4872604274 
S 4.7338682628 4.5444453842 10.6997763020 
Mo 3.1512568329 7.2774749019 -9.1672481230 
Mo 4.7268384135 6.3678043337 -3.0554959052 
S 3.1512606125 7.2774972547 -4.6232589675 
S 4.7268770050 6.3677884239 -7.6014065489 
S 4.7268774587 6.3677895528 -10.7330757790 
S 3.1512629079 7.2774963749 -1.4877081835 
Mo 3.1513186775 7.2763224719 3.0555650437 
Mo 4.7408151063 6.3604464846 9.1831574616 
S 3.1377274471 7.2647855546 7.6458763581 
S 4.7262423373 6.3674686957 4.6252703526 
S 4.7267711005 6.3667957434 1.4873067554 
S 3.2382144570 7.3497712906 10.7968914497 
Mo 1.5756394905 10.0065304219 -9.1672481230 
Mo 3.1512330605 9.0968514907 -3.0554878870 
S 1.5756499830 10.0065443759 -4.6232632674 
S 3.1512596626 9.0968439439 -7.6014065489 
S 3.1512601163 9.0968450728 -10.7330757790 
S 1.5756503041 10.0065459699 -1.4877044377 
Mo 1.5755925080 10.0062143385 3.0563329214 
Mo 3.1574959277 9.1202496192 9.1715135605 
S 1.5746833455 10.0050717382 7.5936198197 
S 3.1512690752 9.0957232968 4.6234927545 
S 3.1513870593 9.0964475068 1.4882462398 
S 1.5729233617 10.0111169783 10.7373417599 
Mo 9.4537312807 1.8193638619 -9.1672481230 
Mo 11.0293863460 0.9096952246 -3.0554894007 
S 9.4537395970 1.8193770750 -4.6232328036 
S 11.0293514528 0.9096773839 -7.6014065489 
S 11.0293519066 0.9096785128 -10.7330757790 
S 9.4537393632 1.8193794783 -1.4877366147 
Mo 9.4541039738 1.8191756873 3.0557522955 
Mo 11.0300839516 0.9093012328 9.1558999444 
S 9.4543421024 1.8190603178 7.5880863453 
S 11.0291828653 0.9098011435 4.6246788383 
S 11.0294605842 0.9096449680 1.4874054753 
S 9.4601226665 1.8157227923 10.7319798206 
Mo 7.8781139383 4.5484193819 -9.1672481230 
Mo 9.4537539161 3.6387607911 -3.0554933032 
S 7.8781175448 4.5484378232 -4.6232366318 
S 9.4537341104 3.6387329039 -7.6014065489 
S 9.4537345641 3.6387340328 -10.7330757790 
S 7.8781194018 4.5484411585 -1.4877377057 
Mo 7.8772158860 4.5485937199 3.0554553694 
Mo 9.4612612381 3.6326667866 9.1634049141 
S 7.8746980304 4.5396302276 7.5952558699 
S 9.4533487132 3.6388934950 4.6227786569 
S 9.4536029887 3.6388307384 1.4880785417 
S 7.8961106326 4.5511897889 10.7343424730 
Mo 6.3024965959 7.2774749019 -9.1672481230 
Mo 7.8781361655 6.3678242352 -3.0555014130 
S 6.3024973331 7.2774953556 -4.6232392528 
S 7.8781167680 6.3677884239 -7.6014065489 
S 7.8781172217 6.3677895528 -10.7330757790 
S 6.3024989866 7.2774929744 -1.4877349119 
Mo 6.3019417195 7.2764744088 3.0557162057 
Mo 7.8768759804 6.3675352502 9.1570390253 
S 6.2915657317 7.2757385908 7.5947821684 
S 7.8780312556 6.3675821528 4.6242151240 
S 7.8783241252 6.3680227056 1.4880649952 
S 6.3286250102 7.2951263233 10.7371977852 
Mo 4.7268792535 10.0065304219 -9.1672481230 
Mo 6.3025111524 9.0968738021 -3.0554915260 
S 4.7268840634 10.0065452125 -4.6232380477 
S 6.3024994256 9.0968439439 -7.6014065489 
S 6.3024998793 9.0968450728 -10.7330757790 
S 4.7268847312 10.0065459141 -1.4877283294 
Mo 4.7267172508 10.0068602606 3.0560394735 
Mo 6.3035998972 9.1080683253 9.1586881426 
S 4.7249819808 10.0081128043 7.5862832010 
S 6.3023431831 9.0963824781 4.6227178058 
S 6.3021132251 9.0964568244 1.4881037860 
S 4.7381215905 10.0243542810 10.7345299172 
Pd 1.5824613211 6.3638935235 12.1089018139 
H 4.7239596769 4.5502208426 12.1034676603 

