&CONTROL
   calculation      = 'nscf'
   verbosity        = 'high'
   restart_mode     = 'from_scratch'
   wf_collect       = .true.
   outdir           = './outdir'
   pseudo_dir       = './pseudo'
/
&SYSTEM
   nbnd             = 1267
   ecutwfc          = 77.0
   ecutrho          = 539.0
   occupations      = 'tetrahedra'
   assume_isolated  = 'esm'
   esm_bc           = 'bc1'
   vdw_corr         = 'dft-d3'
   dftd3_version    = 4
   ntyp             = 4
   nat              = 146
   ibrav            = 0
/
&ELECTRONS
   electron_maxstep = 1000
   conv_thr         = 1e-06
   mixing_beta      = 0.2
   diagonalization  = 'david'
/
&IONS
/
&CELL
/

ATOMIC_SPECIES
Mo 95.95 Mo.pbe-spn-kjpaw_psl.1.0.0.UPF
S 32.06 S.pbe-n-kjpaw_psl.1.0.0.UPF
Pd 106.42 Pd.pbe-spn-kjpaw_psl.1.0.0.UPF
H 1.008 H.pbe-kjpaw_psl.1.0.0.UPF

K_POINTS automatic
2 2 1  0 0 0

CELL_PARAMETERS angstrom
12.61532217525308 0.00000000000000 0.00000000000000
-6.30767370294872 10.92519700214573 0.00000000000000
0.00000000000000 0.00000000000000 30.30125956094956

ATOMIC_POSITIONS angstrom
Mo 1.5528278359 2.7087909341 6.0553715993 
Mo 1.5769197498 0.9104407117 -6.0872367793 
Mo -0.0011253993 1.8199022565 -0.0025348896 
S 0.0000044503 0.0000077495 -7.6506323570 
S 1.5756036149 0.9102697204 -1.5688418366 
S -0.0173954384 1.8124550892 4.4816660322 
S 0.0000053241 0.0000068460 -4.5222282367 
S 1.5758934897 0.9084780411 1.5629938153 
S -0.0199408192 1.8175630378 7.6284350300 
Mo -0.0189902250 5.4581422048 6.0782426348 
Mo 0.0000011799 3.6417399547 -6.0872367793 
Mo -1.5779296565 4.5518285423 -0.0010534653 
S -1.5769141197 2.7313069925 -7.6506323570 
S -0.0011196431 3.6415728696 -1.5667939557 
S -1.5858341732 4.5580463425 4.4957317875 
S -1.5769132459 2.7313060890 -4.5222282367 
S -0.0005624714 3.6407209978 1.5650330367 
S -1.6007773712 4.5403082439 7.6342465229 
Mo -1.5891322140 8.1913466391 6.0788858382 
Mo -1.5769173901 6.3730391977 -6.0872367793 
Mo -3.1550228797 7.2826426673 -0.0026859978 
S -3.1538326896 5.4626062355 -7.6506323570 
S -1.5774115705 6.3719371501 -1.5669564214 
S -3.1692849750 7.2830411310 4.5106797443 
S -3.1538318159 5.4626053320 -4.5222282367 
S -1.5778367823 6.3736754452 1.5658879666 
S -3.1657747894 7.2728919165 7.6403646284 
Mo 3.1390796613 -0.0106783527 6.0581519080 
Mo -3.1538359601 9.1043384407 -6.0872367793 
Mo -4.7321768524 10.0138309391 -0.0045605183 
S -4.7307512596 8.1939054785 -7.6506323570 
S -3.1549223622 9.1028735214 -1.5693588455 
S -4.7471662229 9.9967311500 4.4982337963 
S -4.7307503859 8.1939045750 -4.5222282367 
S -3.1552589027 9.1041377953 1.5624038021 
S -4.7416899811 10.0194673126 7.6354846845 
Mo 4.7249051936 2.7079096960 6.0532644430 
Mo 4.7307503218 0.9104407117 -6.0872367793 
Mo 3.1527615238 1.8201096039 -0.0032912913 
S 3.1538350223 0.0000077495 -7.6506323570 
S 4.7296959220 0.9099727969 -1.5692735721 
S 3.1376605356 1.8072333904 4.4864977883 
S 3.1538358961 0.0000068460 -4.5222282367 
S 4.7297292678 0.9089449821 1.5625845008 
S 3.1393804333 1.8100272580 7.6187182216 
Mo 3.1395327333 5.4206286490 6.0847620553 
Mo 3.1538317519 3.6417399547 -6.0872367793 
Mo 1.5762268491 4.5516147766 -0.0016096711 
S 1.5769164523 2.7313069925 -7.6506323570 
S 3.1522845110 3.6413602637 -1.5679922859 
S 1.5728289987 4.5523334147 4.5198830358 
S 1.5769173261 2.7313060890 -4.5222282367 
S 3.1532595989 3.6407150560 1.5647515498 
S 1.4851760798 4.4891348598 7.6679915593 
Mo 1.5677217547 8.2121752814 6.1394561081 
Mo 1.5769131819 6.3730391977 -6.0872367793 
Mo -0.0005897159 7.2826067408 -0.0017149674 
S -0.0000021176 5.4626062355 -7.6506323570 
S 1.5756572552 6.3718090347 -1.5674747246 
S 0.0090904456 7.2902720789 4.5316379080 
S -0.0000012439 5.4626053320 -4.5222282367 
S 1.5772205217 6.3730056875 1.5665085734 
S -0.0330718925 7.2697212136 7.6629722969 
Mo 6.2872514564 0.0034876175 6.0537830269 
Mo -0.0000053881 9.1043384407 -6.0872367793 
Mo -1.5779380027 10.0138921681 -0.0045312802 
S -1.5769206876 8.1939054785 -7.6506323570 
S -0.0006587868 9.1025421956 -1.5687242072 
S -1.5916410147 9.9982274057 4.4944844432 
S -1.5769198139 8.1939045750 -4.5222282367 
S -0.0012635490 9.1041433142 1.5635168080 
S -1.5946190743 10.0188623626 7.6333656267 
Mo 7.8685051179 2.7285105158 6.0520936432 
Mo 7.8845808939 0.9104407117 -6.0872367793 
Mo 6.3066252444 1.8199630762 -0.0037651392 
S 6.3076655943 0.0000077495 -7.6506323570 
S 7.8841825919 0.9097095490 -1.5685887864 
S 6.2955515286 1.8125593257 4.4782814515 
S 6.3076664681 0.0000068460 -4.5222282367 
S 7.8832036176 0.9083349005 1.5635443048 
S 6.2967907519 1.8162040509 7.6257490968 
Mo 6.2980867540 5.4576644350 6.0813197068 
Mo 6.3076623239 3.6417399547 -6.0872367793 
Mo 4.7292422745 4.5517114484 -0.0029709492 
S 4.7307470244 2.7313069925 -7.6506323570 
S 6.3067007965 3.6415388634 -1.5684529345 
S 4.7077497988 4.5533758098 4.5204273314 
S 4.7307478981 2.7313060890 -4.5222282367 
S 6.3058762610 3.6409181528 1.5633152463 
S 4.7910713605 4.4871641868 7.6677897779 
Mo 4.7121085113 8.2125306972 6.1439105407 
Mo 4.7307437539 6.3730391977 -6.0872367793 
Mo 3.1526651974 7.2829427404 -0.0031335128 
S 3.1538284544 5.4626062355 -7.6506323570 
S 4.7293792715 6.3722571097 -1.5685234339 
S 3.1414792573 7.2706890869 4.6007669137 
S 3.1538293281 5.4626053320 -4.5222282367 
S 4.7285489186 6.3728119651 1.5653525253 
S 3.1375624712 7.5606369888 7.8866113624 
Mo 9.4471401062 0.0111293014 6.0700826498 
Mo 3.1538251839 9.1043384407 -6.0872367793 
Mo 1.5763770462 10.0132308979 -0.0038698384 
S 1.5769098844 8.1939054785 -7.6506323570 
S 3.1527546428 9.1030236136 -1.5696684279 
S 1.5700141007 9.9911533372 4.5156859173 
S 1.5769107581 8.1939045750 -4.5222282367 
S 3.1525245804 9.1024208440 1.5638881366 
S 1.5421797060 10.0700735189 7.6475354040 
Mo -1.5905243928 2.7292628573 6.0536234390 
Mo 11.0384114659 0.9104407117 -6.0872367793 
Mo 9.4604272864 1.8200066325 -0.0025162916 
S 9.4614961663 0.0000077495 -7.6506323570 
S 11.0373627505 0.9099297785 -1.5680232740 
S 9.4477144056 1.8165212471 4.4884133494 
S 9.4614970401 0.0000068460 -4.5222282367 
S 11.0368762986 0.9080066724 1.5642111017 
S 9.4461717189 1.8357640919 7.6278083993 
Mo -3.1678815189 5.4554224477 6.0640048331 
Mo 9.4614928959 3.6417399547 -6.0872367793 
Mo 7.8833578323 4.5519101295 -0.0026017026 
S 7.8845775964 2.7313069925 -7.6506323570 
S 9.4611529346 3.6415051417 -1.5673013520 
S 7.8639539372 4.5590971547 4.4964884313 
S 7.8845784701 2.7313060890 -4.5222282367 
S 9.4595364849 3.6409782327 1.5647643318 
S 7.8811029325 4.5382028356 7.6341981403 
Mo -4.7467320556 8.1905113609 6.0829551307 
Mo 7.8845743259 6.3730391977 -6.0872367793 
Mo 6.3059847485 7.2826202509 -0.0030068825 
S 6.3076590264 5.4626062355 -7.6506323570 
S 7.8835645955 6.3724116006 -1.5682216160 
S 6.2700244607 7.2905423082 4.5368164637 
S 6.3076599001 5.4626053320 -4.5222282367 
S 7.8823222782 6.3732740960 1.5647724853 
S 6.3131140875 7.2685466843 7.6678402726 
Mo -0.0089025860 0.0042458801 6.0580472077 
Mo 6.3076557559 9.1043384407 -6.0872367793 
Mo 4.7289086029 10.0132209030 -0.0037555905 
S 4.7307404564 8.1939054785 -7.6506323570 
S 6.3060360371 9.1031333302 -1.5691509332 
S 4.7122204527 9.9905736013 4.5200299883 
S 4.7307413301 8.1939045750 -4.5222282367 
S 6.3061689470 9.1034183315 1.5631235853 
S 4.7336262660 10.0721918436 7.6531994636 
Pd 3.1367763718 5.5380938977 8.9718742037 
H 3.1326373442 8.6512750687 8.7796646138 

