&CONTROL
   calculation      = 'relax'
   restart_mode     = 'from_scratch'
   wf_collect       = .true.
   nstep            = 9999
   tstress          = .false.
   tprnfor          = .true.
   outdir           = '/scratch/calc/outdir'
   pseudo_dir       = './pseudo'
/
&SYSTEM
   ecutwfc          = 36
   ecutrho          = 400
   nosym            = .true.
   occupations      = 'smearing'
   degauss          = 0.01
   smearing         = 'gaussian'
   vdw_corr         = 'dft-d3'
   dftd3_version    = 4
   ntyp             = 4
   nat              = 92
   ibrav            = 0
/
&ELECTRONS
   electron_maxstep = 9999
   conv_thr         = 1e-06
   mixing_beta      = 0.2
   diagonalization  = 'david'
/
&IONS
/
&CELL
/

ATOMIC_SPECIES
O 15.999 O.pbe-n-kjpaw_psl.1.0.0.UPF
N 14.007 N.pbe-n-kjpaw_psl.1.0.0.UPF
C 12.011 C.pbe-n-kjpaw_psl.1.0.0.UPF
H 1.008 H.pbe-kjpaw_psl.1.0.0.UPF

K_POINTS automatic
2 2 2  0 0 0

CELL_PARAMETERS angstrom
3.87400000000000 0.00000000000000 0.00000000000000
0.00000000000000 15.58000000000000 0.00000000000000
-1.94317217847209 0.00000000000000 14.46708301230113

ATOMIC_POSITIONS angstrom
O 1.4818468432 4.6973700000 3.0800419733 
O 1.4205670676 12.4873700000 4.1534995328 
O 0.4489809783 10.8826300000 11.3870410390 
O 0.5102607540 3.0926300000 10.3135834795 
O 1.5350304232 6.0481560000 13.7191348206 
O -0.5757886909 13.8381560000 7.9814896979 
O 0.3957973984 9.5318440000 0.7479481917 
O 2.5066165124 1.7418440000 6.4855933144 
N 2.5656166681 5.3797740000 1.2210218062 
N 0.3367972426 13.1697740000 6.0125196999 
N -0.6347888466 10.2002260000 13.2460612061 
N 1.5940305789 2.4102260000 8.4545633124 
C 3.2156738681 0.3240640000 1.2210218062 
C -0.3132599574 8.1140640000 6.0125196999 
C -1.2848460466 15.2559360000 13.2460612061 
C 2.2440877789 7.4659360000 8.4545633124 
C 3.5453551843 1.3507860000 0.3038087433 
C -0.6429412735 9.1407860000 6.9297327629 
C -1.6145273627 14.2292140000 14.1632742690 
C 2.5737690950 6.4392140000 7.5373502494 
C -1.5921813935 1.0687880000 13.5440831161 
C 2.5514231258 8.8587880000 8.1565414023 
C 3.5230092150 14.5112120000 0.9229998962 
C -0.6205953042 6.7212120000 6.3105416100 
C -1.3210283383 2.1064160000 12.6992054682 
C 2.2802700706 9.8964160000 9.0014190503 
C 3.2518561598 13.4735840000 1.7678775441 
C -0.3494422490 5.6835840000 5.4656639620 
C -1.6229400851 3.4385060000 12.9972273783 
C 2.5821818174 11.2285060000 8.7033971402 
C 3.5537679067 12.1414940000 1.4698556340 
C -0.6513539959 4.3514940000 5.7636858721 
C 1.6101877684 3.7220620000 14.1690611022 
C -0.6509460361 11.5120620000 7.5315634162 
C 0.3206400531 11.8579380000 0.2980219101 
C 2.5817738576 4.0679380000 6.9355195961 
C 3.2106988791 2.6813180000 0.6235312778 
C -0.3082849683 10.4713180000 6.6100102283 
C -1.2798710576 12.8986820000 13.8435517345 
C 2.2391127899 5.1086820000 7.8570727840 
C 2.5405675399 3.0178460000 1.8199590429 
C 0.3618463708 10.8078460000 5.4135824632 
C -0.6097397184 12.5621540000 12.6471239694 
C 1.5689814507 4.7721540000 9.0535005491 
C 2.2138096232 2.0222840000 2.6952175652 
C 0.6886042876 9.8122840000 4.5383239410 
C -0.2829818016 13.5577160000 11.7718654471 
C 1.2422235339 5.7677160000 9.9287590713 
C 2.5716975839 0.7073320000 2.4044291966 
C 0.3307163268 8.4973320000 4.8291123095 
C -0.6408697624 14.8726680000 12.0626538157 
C 1.6001114947 7.0826680000 9.6379707028 
C 2.1518818964 4.4029080000 2.1093007032 
C 0.7505320144 12.1929080000 5.1242408030 
C -0.2210540749 11.1770920000 12.3577823091 
C 1.1802958071 3.3870920000 9.3428422093 
C 1.2708925387 5.1195880000 14.4656363040 
C -0.3116508065 12.9095880000 7.2349882145 
C 0.6599352828 10.4604120000 0.0014467083 
C 2.2424786280 2.6704120000 7.2320947978 
C 2.2392802047 6.8131340000 1.5624449653 
C 0.6631337060 14.6031340000 5.6710965408 
C -0.3084523832 8.7668660000 12.9046380470 
C 1.2676941155 0.9768660000 8.7959864715 
H -0.8993722347 1.9132240000 11.8586679452 
H 1.8586139670 9.7032240000 9.8419565733 
H 2.8302000562 13.6667760000 2.6084150671 
H 0.0722138545 5.8767760000 4.6251264390 
H -1.3807501709 4.1442800000 12.3910566000 
H 2.3399919032 11.9342800000 9.3095679184 
H 3.3115779924 11.4357200000 2.0760264123 
H -0.4091640816 3.6457200000 5.1575150939 
H 1.7412233812 2.2279400000 3.5053742139 
H 1.1611905296 10.0179400000 3.7281672923 
H 0.1896044404 13.3520600000 10.9617087984 
H 0.7696372919 5.5620600000 10.7389157200 
H 2.3699730703 0.0280440000 3.0525545156 
H 0.5324408404 7.8180440000 4.1809869906 
H -0.4391452488 15.5519560000 11.4145284967 
H 1.3983869811 7.7619560000 10.2860960217 
H 1.3983656549 7.1590100000 1.2557428055 
H 1.5040482559 14.9490100000 5.9777987007 
H 0.5324621666 8.4209900000 13.2113402068 
H 0.4267795657 0.6309900000 8.4892843116 
H 2.9532764104 7.2197720000 1.0662240180 
H -0.0508624997 15.0097720000 6.1673174881 
H -1.0224485889 8.3602280000 13.4008589943 
H 1.9816903212 0.5702280000 8.2997655242 
H 2.3452233992 7.0110000000 2.4955718196 
H 0.5571905116 14.8010000000 4.7379696865 
H -0.4143955777 8.5690000000 11.9715111927 
H 1.3736373100 0.7790000000 9.7291133258 

