&CONTROL
   calculation      = 'relax'
   restart_mode     = 'from_scratch'
   wf_collect       = .true.
   nstep            = 1000
   tstress          = .false.
   tprnfor          = .true.
   outdir           = './outdir'
   pseudo_dir       = './pseudo'
/
&SYSTEM
   ecutwfc          = 77.0
   ecutrho          = 539.0
   nosym            = .true.
   occupations      = 'smearing'
   degauss          = 0.01
   smearing         = 'gaussian'
   assume_isolated  = 'esm'
   esm_bc           = 'bc1'
   vdw_corr         = 'dft-d3'
   dftd3_version    = 4
   ntyp             = 4
   nat              = 195
   ibrav            = 0
/
&ELECTRONS
   electron_maxstep = 1000
   conv_thr         = 1e-06
   mixing_beta      = 0.2
   diagonalization  = 'david'
/
&IONS
/
&CELL
/

ATOMIC_SPECIES
Mo 95.95 Mo.pbe-spn-kjpaw_psl.1.0.0.UPF
S 32.06 S.pbe-n-kjpaw_psl.1.0.0.UPF
Pt 195.084 Pt.pbe-spfn-kjpaw_psl.1.0.0.UPF
Pd 106.42 Pd.pbe-spn-kjpaw_psl.1.0.0.UPF

K_POINTS automatic
2 2 1  0 0 0

CELL_PARAMETERS angstrom
12.60495876880469 0.00000000000000 0.00000000000000
-6.30246677944357 10.91622202271285 0.00000000000000
0.00000000000000 0.00000000000000 36.46614571815195

ATOMIC_POSITIONS angstrom
Mo 0.0000119917 1.8193638619 -9.1672481230  0 0 0
Mo 1.5756136568 0.9097075315 -3.0554901653  0 0 0
S 0.0000188998 1.8193822938 -4.6232556019  0 0 0
S 1.5756321638 0.9096773839 -7.6014065489  0 0 0
S 1.5756326175 0.9096785128 -10.7330757790  0 0 0
S 0.0000189190 1.8193860094 -1.4877129945  0 0 0
Mo 0.0002073650 1.8197009548 3.0560197889 
Mo 1.5759164750 0.9040860256 9.1554935389 
S 0.0067679425 1.8256850092 7.5821578318 
S 1.5755617794 0.9095963161 4.6236694761 
S 1.5758655927 0.9097994506 1.4884224434 
S -0.0041219113 1.8038010509 10.7294399221 
Mo -1.5756053507 4.5484193819 -9.1672481230  0 0 0
Mo 0.0000378379 3.6387394919 -3.0554952701  0 0 0
S -1.5755913433 4.5484363582 -4.6232494962  0 0 0
S 0.0000148214 3.6387329039 -7.6014065489  0 0 0
S 0.0000152751 3.6387340328 -10.7330757790  0 0 0
S -1.5755906502 4.5484413613 -1.4877305502  0 0 0
Mo -1.5754155591 4.5486388843 3.0561530683 
Mo -0.0127456560 3.6245550945 9.1701606939 
S -1.5751019305 4.5563434074 7.5994178762 
S 0.0002884632 3.6392578084 4.6240817887 
S 0.0004020099 3.6391005655 1.4884559037 
S -1.5808868741 4.5395901812 10.7391414078 
Mo -3.1512226931 7.2774749019 -9.1672481230  0 0 0
Mo -1.5755910988 6.3678216792 -3.0555115988  0 0 0
S -3.1512162438 7.2774954350 -4.6232578178  0 0 0
S -1.5756025210 6.3677884239 -7.6014065489  0 0 0
S -1.5756020673 6.3677895528 -10.7330757790  0 0 0
S -3.1512127704 7.2774877076 -1.4877200710  0 0 0
Mo -3.1511033235 7.2773753179 3.0563561109 
Mo -1.5839471812 6.3680609995 9.1841670966 
S -3.1490036384 7.2710116323 7.6031376059 
S -1.5750157897 6.3678521497 4.6241528020 
S -1.5755879899 6.3677721890 1.4882953393 
S -3.1509455611 7.2837239831 10.7506939187 
Mo -4.7268400355 10.0065304219 -9.1672481230  0 0 0
Mo -3.1512405618 9.0968403586 -3.0554816746  0 0 0
S -4.7268341792 10.0065523623 -4.6232463762  0 0 0
S -3.1512198634 9.0968439439 -7.6014065489  0 0 0
S -3.1512194097 9.0968450728 -10.7330757790  0 0 0
S -4.7268370797 10.0065537885 -1.4877176751  0 0 0
Mo -4.7267567404 10.0063792981 3.0560141722 
Mo -3.1504044768 9.0940808619 9.1679038876 
S -4.7257488877 9.9969890319 7.5932491728 
S -3.1510320458 9.0967385360 4.6236900717 
S -3.1512170041 9.0966429467 1.4882547930 
S -4.7212889143 10.0149414596 10.7350940180 
Mo 3.1512517547 1.8193638619 -9.1672481230  0 0 0
Mo 4.7269020221 0.9097289540 -3.0554823951  0 0 0
S 3.1512612351 1.8193882564 -4.6232320683  0 0 0
S 4.7268719268 0.9096773839 -7.6014065489  0 0 0
S 4.7268723805 0.9096785128 -10.7330757790  0 0 0
S 3.1512592485 1.8193890201 -1.4877261251  0 0 0
Mo 3.1513011321 1.8195992531 3.0564499307 
Mo 4.7277359665 0.9040281850 9.1565726022 
S 3.1521270978 1.8155698920 7.5875231648 
S 4.7269843876 0.9094262117 4.6236330632 
S 4.7267937874 0.9098906234 1.4884237217 
S 3.1514047289 1.7813470784 10.7345532821 
Mo 1.5756344123 4.5484193819 -9.1672481230  0 0 0
Mo 3.1512756394 3.6387769522 -3.0554814834  0 0 0
S 1.5756504879 4.5484423799 -4.6232390542  0 0 0
S 3.1512545844 3.6387329039 -7.6014065489  0 0 0
S 3.1512550381 3.6387340328 -10.7330757790  0 0 0
S 1.5756466253 4.5484431864 -1.4877251801  0 0 0
Mo 1.5758969219 4.5488009723 3.0565872005 
Mo 3.1518902048 3.6080643362 9.1822509846 
S 1.5775014908 4.5621150520 7.6407120941 
S 3.1512660507 3.6392240037 4.6248264155 
S 3.1513454725 3.6389563825 1.4887703663 
S 1.5650739254 4.4304112478 10.7874033475 
Mo 0.0000170699 7.2774749019 -9.1672481230  0 0 0
Mo 1.5756764447 6.3678236689 -3.0554877708  0 0 0
S 0.0000381981 7.2774979204 -4.6232454413  0 0 0
S 1.5756372420 6.3677884239 -7.6014065489  0 0 0
S 1.5756376957 6.3677895528 -10.7330757790  0 0 0
S 0.0000328088 7.2774946042 -1.4877307940  0 0 0
Mo 0.0003755340 7.2771440124 3.0558434457 
Mo 1.5574205721 6.3699018914 9.2098962438 
S 0.0117768259 7.2650492001 7.6377797721 
S 1.5757182501 6.3679832762 4.6249747742 
S 1.5761275654 6.3677015710 1.4884365740 
S -0.0830412055 7.3191806248 10.8262581010 
Mo -1.5756002725 10.0065304219 -9.1672481230  0 0 0
Mo 0.0000873425 9.0968676911 -3.0554912329  0 0 0
S -1.5755883952 10.0065504530 -4.6232240150  0 0 0
S 0.0000198996 9.0968439439 -7.6014065489  0 0 0
S 0.0000203533 9.0968450728 -10.7330757790  0 0 0
S -1.5755859047 10.0065492576 -1.4877362381  0 0 0
Mo -1.5755090792 10.0063434778 3.0558637351 
Mo -0.0035993715 9.1032532111 9.1769518752 
S -1.5736752963 9.9965510368 7.5956250535 
S -0.0000751385 9.0960006369 4.6234731533 
S 0.0002639868 9.0967125665 1.4881912179 
S -1.5810651301 10.0152023512 10.7371878824 
Mo 6.3024915177 1.8193638619 -9.1672481230  0 0 0
Mo 7.8781001445 0.9096521684 -3.0554919963  0 0 0
S 6.3025008696 1.8193826232 -4.6232480596  0 0 0
S 7.8781116898 0.9096773839 -7.6014065489  0 0 0
S 7.8781121435 0.9096785128 -10.7330757790  0 0 0
S 6.3025042007 1.8193849068 -1.4877147524  0 0 0
Mo 6.3024225506 1.8196656640 3.0561567645 
Mo 7.8736413802 0.9177909685 9.1466790560 
S 6.2968780513 1.8237244766 7.5819389402 
S 7.8784907346 0.9102758353 4.6231477775 
S 7.8778570309 0.9096190315 1.4881903066 
S 6.3083507447 1.8054189231 10.7284709435 
Mo 4.7268741753 4.5484193819 -9.1672481230  0 0 0
Mo 6.3024679138 3.6387501714 -3.0554895197  0 0 0
S 4.7268748770 4.5484386753 -4.6232519432  0 0 0
S 6.3024943474 3.6387329039 -7.6014065489  0 0 0
S 6.3024948011 3.6387340328 -10.7330757790  0 0 0
S 4.7268770533 4.5484432419 -1.4877137856  0 0 0
Mo 4.7267472558 4.5487939400 3.0566815764 
Mo 6.3166531184 3.6242362975 9.1670962111 
S 4.7253574641 4.5615643928 7.6381070197 
S 6.3023335224 3.6392177827 4.6242395765 
S 6.3022953771 3.6390869617 1.4886299647 
S 4.7404347802 4.4300588117 10.7851960662 
Mo 3.1512568329 7.2774749019 -9.1672481230  0 0 0
Mo 4.7268384135 6.3678043337 -3.0554959052  0 0 0
S 3.1512606125 7.2774972547 -4.6232589675  0 0 0
S 4.7268770050 6.3677884239 -7.6014065489  0 0 0
S 4.7268774587 6.3677895528 -10.7330757790  0 0 0
S 3.1512629079 7.2774963749 -1.4877081835  0 0 0
Mo 3.1513364643 7.2773240877 3.0566659162 
Mo 4.7482793316 6.3695858953 9.2070050817 
S 3.1512758588 7.2661136804 7.6570351491 
S 4.7268878740 6.3679910469 4.6250445292 
S 4.7266023020 6.3677058536 1.4885160666 
S 3.1538690307 7.4455010994 10.7363977237 
Mo 1.5756394905 10.0065304219 -9.1672481230  0 0 0
Mo 3.1512330605 9.0968514907 -3.0554878870  0 0 0
S 1.5756499830 10.0065443759 -4.6232632674  0 0 0
S 3.1512596626 9.0968439439 -7.6014065489  0 0 0
S 3.1512601163 9.0968450728 -10.7330757790  0 0 0
S 1.5756503041 10.0065459699 -1.4877044377  0 0 0
Mo 1.5756576158 10.0064546417 3.0563100794 
Mo 3.1523345349 9.1641058355 9.1417475388 
S 1.5555905246 10.0178779541 7.5752225412 
S 3.1512909023 9.0966879030 4.6244638738 
S 3.1513552821 9.0967190358 1.4887427956 
S 1.5725546337 10.0381381800 10.7225765161 
Mo 9.4537312807 1.8193638619 -9.1672481230  0 0 0
Mo 11.0293863460 0.9096952246 -3.0554894007  0 0 0
S 9.4537395970 1.8193770750 -4.6232328036  0 0 0
S 11.0293514528 0.9096773839 -7.6014065489  0 0 0
S 11.0293519066 0.9096785128 -10.7330757790  0 0 0
S 9.4537393632 1.8193794783 -1.4877366147  0 0 0
Mo 9.4537890711 1.8197651756 3.0553232940 
Mo 11.0353416211 0.9184462660 9.1463205721 
S 9.4541069986 1.8302557209 7.5814283960 
S 11.0291644112 0.9104090634 4.6230966632 
S 11.0296587226 0.9095623014 1.4881678645 
S 9.4542751854 1.8185066188 10.7192420566 
Mo 7.8781139383 4.5484193819 -9.1672481230  0 0 0
Mo 9.4537539161 3.6387607911 -3.0554933032  0 0 0
S 7.8781175448 4.5484378232 -4.6232366318  0 0 0
S 9.4537341104 3.6387329039 -7.6014065489  0 0 0
S 9.4537345641 3.6387340328 -10.7330757790  0 0 0
S 7.8781194018 4.5484411585 -1.4877377057  0 0 0
Mo 7.8780869090 4.5486404617 3.0563326736 
Mo 9.4546591776 3.6400847209 9.1627485676 
S 7.8805001037 4.5554543363 7.5976071096 
S 9.4539098558 3.6389353991 4.6235423755 
S 9.4537095432 3.6392842256 1.4880968199 
S 7.8836443352 4.5399141295 10.7364133681 
Mo 6.3024965959 7.2774749019 -9.1672481230  0 0 0
Mo 7.8781361655 6.3678242352 -3.0555014130  0 0 0
S 6.3024973331 7.2774953556 -4.6232392528  0 0 0
S 7.8781167680 6.3677884239 -7.6014065489  0 0 0
S 7.8781172217 6.3677895528 -10.7330757790  0 0 0
S 6.3024989866 7.2774929744 -1.4877349119  0 0 0
Mo 6.3023037014 7.2771694527 3.0559638778 
Mo 7.8888310252 6.3682072233 9.1814794226 
S 6.2929686430 7.2646969996 7.6340151695 
S 7.8778352025 6.3679549054 4.6242030723 
S 7.8782319681 6.3677451180 1.4884184691 
S 6.3899481276 7.3209031820 10.8226639849 
Mo 4.7268792535 10.0065304219 -9.1672481230  0 0 0
Mo 6.3025111524 9.0968738021 -3.0554915260  0 0 0
S 4.7268840634 10.0065452125 -4.6232380477  0 0 0
S 6.3024994256 9.0968439439 -7.6014065489  0 0 0
S 6.3024998793 9.0968450728 -10.7330757790  0 0 0
S 4.7268847312 10.0065459141 -1.4877283294  0 0 0
Mo 4.7269788532 10.0064903656 3.0563645276 
Mo 6.3080156864 9.1035033995 9.1731186300 
S 4.7474560182 10.0194220799 7.5737632997 
S 6.3027052483 9.0960700991 4.6235465345 
S 6.3024348677 9.0967588436 1.4883337319 
S 4.7335344754 10.0379641072 10.7206839426 
Pt 1.7282269388 6.3432951311 12.0673530093 
Pt 4.5828125596 6.3447852727 12.0646588169 
Pd 3.1520000000 3.6080000000 12.3850000000 

