&PROJWFC
outdir = "./outdir"
deltae  =  0.01
/
