&CONTROL
   calculation      = 'relax'
   restart_mode     = 'from_scratch'
   wf_collect       = .true.
   nstep            = 9999
   tstress          = .false.
   tprnfor          = .true.
   outdir           = '/scratch/calc/outdir'
   pseudo_dir       = './pseudo'
/
&SYSTEM
   ecutwfc          = 36
   ecutrho          = 400
   nosym            = .true.
   occupations      = 'smearing'
   degauss          = 0.01
   smearing         = 'gaussian'
   vdw_corr         = 'dft-d3'
   dftd3_version    = 4
   ntyp             = 4
   nat              = 72
   ibrav            = 0
/
&ELECTRONS
   electron_maxstep = 9999
   conv_thr         = 1e-06
   mixing_beta      = 0.2
   diagonalization  = 'david'
/
&IONS
/
&CELL
/

ATOMIC_SPECIES
O 15.999 O.pbe-n-kjpaw_psl.1.0.0.UPF
N 14.007 N.pbe-n-kjpaw_psl.1.0.0.UPF
H 1.008 H.pbe-kjpaw_psl.1.0.0.UPF
C 12.011 C.pbe-n-kjpaw_psl.1.0.0.UPF

K_POINTS automatic
2 2 2  0 0 0

CELL_PARAMETERS angstrom
5.69200000000000 0.00000000000000 0.00000000000000
0.00000000000000 3.97500000000000 0.00000000000000
-3.53367577866048 0.00000000000000 29.81129878907171

ATOMIC_POSITIONS angstrom
O 0.8470921148 1.6532025000 2.6016320453 
O -0.9197457745 0.3342975000 17.5072814399 
O 1.3112321065 2.3217975000 27.2096667437 
O 3.0780699959 3.6407025000 12.3040173492 
N 4.2216540141 3.3485400000 2.3202133848 
N 2.4548161248 2.6139600000 17.2258627793 
N -2.0633297928 0.6264600000 27.4910854043 
N -0.2964919035 1.3610400000 12.5854360098 
H 4.9386197760 2.8771050000 2.2596964482 
H 3.1717818866 3.0853950000 17.1653458427 
H -2.7802955546 1.0978950000 27.5516023409 
H -1.0134576653 0.8896050000 12.6459529463 
C 2.2055897719 0.8784750000 4.9993548069 
C 0.4387518826 1.1090250000 19.9050042015 
C -0.0472655506 3.0965250000 24.8119439821 
C 1.7195723388 2.8659750000 9.9062945876 
H 1.4310038688 1.3789275000 5.1186000021 
H -0.3358340205 0.6085725000 20.0242493966 
H 0.7273203525 2.5960725000 24.6926987870 
H 2.4941582419 3.3664275000 9.7870493925 
C 2.9323340384 0.4968750000 6.0904483426 
C 1.1654961491 1.4906250000 20.9960977371 
C -0.7740098171 3.4781250000 23.7208504465 
C 0.9928280723 2.4843750000 8.8152010519 
H 2.6271439436 0.6972150000 6.9460326179 
H 0.8603060542 1.2902850000 21.8516820124 
H -0.4688197222 3.2777850000 22.8652661712 
H 1.2980181671 2.6847150000 7.9596167767 
C 4.1369811904 3.7762500000 5.9205239395 
C 2.3701433010 2.1862500000 20.8261733340 
C -1.9786569690 0.1987500000 23.8907748496 
C -0.2118190797 1.7887500000 8.9851254550 
H 4.6514220959 3.5655750000 6.6658064092 
H 2.8845842066 2.3969250000 21.5714558038 
H -2.4930978746 0.4094250000 23.1454923798 
H -0.7262599852 1.5780750000 8.2398429853 
C 4.5678753676 3.4065750000 4.6863361696 
C 2.8010374783 2.5559250000 19.5919855642 
C -2.4095511463 0.5684250000 25.1249626194 
C -0.6427132569 1.4190750000 10.2193132249 
H -0.3241215023 2.9418975000 4.5879588836 
H -2.0909593917 3.0206025000 19.4936082782 
H 2.4824457237 1.0331025000 25.2233399054 
H 4.2492836130 0.9543975000 10.3176905109 
C 3.8061750093 3.7285500000 3.5684124651 
C 2.0393371200 2.2339500000 18.4740618596 
C -1.6478507880 0.2464500000 26.2428863240 
C 0.1189871014 1.7410500000 11.3372369295 
C 2.6080450683 0.5286750000 3.7025633096 
C 0.8412071790 1.4588250000 18.6082127041 
C -0.4497208470 3.4463250000 26.1087354795 
C 1.3171170424 2.5161750000 11.2030860849 
C 3.5620458825 3.6729000000 1.1477350034 
C 1.7952079932 2.2896000000 16.0533843979 
C -1.4037216612 0.3021000000 28.6635637857 
C 0.3631162281 1.6854000000 13.7579143912 
C 2.3616010228 0.4372500000 1.2341877699 
C 0.5947631334 1.5502500000 16.1398371644 
C -0.2032768014 3.5377500000 28.5771110192 
C 1.5635610879 2.4247500000 13.6714616247 
C 1.8665036615 0.9063000000 2.5250170074 
C 0.0996657722 1.0812000000 17.4306664020 
C 0.2918205598 3.0687000000 27.2862817816 
C 2.0586584491 2.8938000000 12.3806323871 
C 1.6745652809 0.7194750000 0.0626037275 
C -0.0922726085 1.2680250000 14.9682531220 
C 0.4837589405 3.2555250000 29.7486950616 
C 2.2505968298 2.7069750000 14.8430456671 
H 0.8826303672 1.2056175000 0.1073206756 
H -0.8842075221 0.7818825000 15.0129700702 
H 1.2756938541 2.7693825000 29.7039781134 
H 3.0425317435 3.1931175000 14.7983287189 

