&CONTROL
   calculation      = 'vc-relax'
   restart_mode     = 'from_scratch'
   wf_collect       = .true.
   nstep            = 9999
   tstress          = .true.
   tprnfor          = .true.
   outdir           = './outdir'
   pseudo_dir       = './pseudo'
/
&SYSTEM
   input_dft        = 'pbesol'
   nbnd             = 296
   ecutwfc          = 100.0
   ecutrho          = 1080.0
   nosym            = .true.
   occupations      = 'smearing'
   degauss          = 0.01
   smearing         = 'gaussian'
   nspin            = 2
   starting_magnetization(1) = 0.0
   starting_magnetization(2) = 1.0
   starting_magnetization(3) = -1.0
   starting_magnetization(4) = 0.0
   starting_magnetization(5) = 0.0
   starting_magnetization(6) = 0.0
   ntyp             = 6
   nat              = 44
   ibrav            = 0
/
&ELECTRONS
   electron_maxstep = 9999
   conv_thr         = 1e-06
   mixing_beta      = 0.2
   diagonalization  = 'david'
/
&IONS
/
&CELL
   cell_dofree      = 'all'
/

ATOMIC_SPECIES
Ba  137.327 Ba.nc.z_10.oncvpsp4.dojo.v4-sp.upf
Mn1  54.938044 mn_pbesol_v1.5.uspp.F.UPF
Mn2  54.938044 mn_pbesol_v1.5.uspp.F.UPF
P  30.973761998 P.pbesol-n-rrkjus_psl.1.0.0.UPF
Na  22.98976928 Na.paw.z_9.ld1.psl.v1.0.0-low.upf
O  15.999 O.pbesol-n-kjpaw_psl.0.1.UPF

K_POINTS automatic
4 4 4  0 0 0

CELL_PARAMETERS angstrom
7.51090000000000 0.00000000000000 0.00000000000000
1.52213057246062 8.54519225122412 0.00000000000000
1.50489612908640 2.29406065127758 8.68840382687871

ATOMIC_POSITIONS angstrom
Ba  8.0837375123 4.7307103674 2.0522009839
Ba  2.4541891892 6.1085425351 6.6362028430
Ba  2.4852795733 9.0920235352 2.3849668505
Ba  8.0526471282 1.7472293673 6.3034369764
Mn1  6.3094052130 5.4357990923 6.3407971129
Mn2  4.2285214885 5.4034538102 2.3476067140
P  4.9496556080 7.6725882705 4.6630663339
P  5.5882710935 3.1666646320 4.0253374930
P  3.6762013490 2.6082079431 0.5412875584
P  6.8617253526 8.2310449594 8.1471162685
P  6.4202545128 1.9757004138 0.0616876672
P  4.1176721888 8.8635524887 8.6267161597
Na  6.1726289533 8.1247145038 1.5500112427
Na  4.3652977482 2.7145383987 7.1383925842
O  6.4295805560 8.1858105831 4.7264916818
O  4.1083461455 2.6534423194 3.9619121451
O  7.5464249955 5.9511752365 4.9463082986
O  2.9915017061 4.8880776660 3.7420955282
O  4.9302531365 6.4236129711 5.5284313550
O  5.6076735651 4.4156399314 3.1599724718
O  7.4416418557 7.0776808778 7.4424867181
O  3.0962848459 3.7615720247 1.2459171088
O  8.9065248128 8.0224897473 4.9558655429
O  1.6314018887 2.8167631552 3.7325382840
O  5.2201515529 2.7679124512 0.7480715695
O  5.3177751486 8.0713404513 7.9403322574
O  7.6944833892 2.7022503513 0.4378955529
O  2.8434433124 8.1370025512 8.2505082740
O  4.0923743258 8.7128566315 5.1982720096
O  6.4455523758 2.1263962710 3.4901318173
O  4.9889178754 5.0045786161 7.7109583964
O  5.5490088261 5.8346742864 0.9774454305
O  5.8835840838 3.4753434691 5.4597929648
O  4.6543426178 7.3639094334 3.2286108621
O  7.6652970816 4.4041471103 7.2330961859
O  2.8726296200 6.4351057922 1.4553076410
O  3.2180535138 1.2615227368 1.0139367266
O  7.3198731877 9.5777301657 7.6744671003
O  6.3184253841 0.5591450859 0.4865506143
O  4.2195013175 10.2801078166 8.2018532126
P  7.7233235818 7.3285192042 4.3502837961
P  2.8146031197 3.5107336983 4.3381200308
O  7.7832891690 7.2733912965 2.8437145725
O  2.7546375325 3.5658616060 5.8446892543

HUBBARD (ortho-atomic)
U Mn1-3d 6.0
U Mn2-3d 6.0

