&CONTROL
   calculation      = 'nscf'
   verbosity        = 'high'
   restart_mode     = 'from_scratch'
   wf_collect       = .true.
   outdir           = './outdir'
   pseudo_dir       = './pseudo'
/
&SYSTEM
   nbnd             = 1267
   ecutwfc          = 77.0
   ecutrho          = 539.0
   occupations      = 'tetrahedra'
   assume_isolated  = 'esm'
   esm_bc           = 'bc1'
   vdw_corr         = 'dft-d3'
   dftd3_version    = 4
   ntyp             = 4
   nat              = 146
   ibrav            = 0
/
&ELECTRONS
   electron_maxstep = 1000
   conv_thr         = 1e-06
   mixing_beta      = 0.2
   diagonalization  = 'david'
/
&IONS
/
&CELL
/

ATOMIC_SPECIES
Mo 95.95 Mo.pbe-spn-kjpaw_psl.1.0.0.UPF
S 32.06 S.pbe-n-kjpaw_psl.1.0.0.UPF
Pd 106.42 Pd.pbe-spn-kjpaw_psl.1.0.0.UPF
H 1.008 H.pbe-kjpaw_psl.1.0.0.UPF

K_POINTS automatic
2 2 1  0 0 0

CELL_PARAMETERS angstrom
12.61532217525308 0.00000000000000 0.00000000000000
-6.30767370294872 10.92519700214573 0.00000000000000
0.00000000000000 0.00000000000000 30.30125956094956

ATOMIC_POSITIONS angstrom
Mo 1.5612730139 2.7207618202 6.0644872962 
Mo 1.5769197498 0.9104407117 -6.0872367793 
Mo -0.0002675722 1.8213658133 -0.0065197021 
S 0.0000044503 0.0000077495 -7.6506323570 
S 1.5761129295 0.9108415481 -1.5725339894 
S -0.0097615691 1.8281245555 4.4902021760 
S 0.0000053241 0.0000068460 -4.5222282367 
S 1.5772925027 0.9111536585 1.5595106170 
S -0.0245227184 1.8174983493 7.6305641212 
Mo -0.0233832088 5.4687565721 6.0771966672 
Mo 0.0000011799 3.6417399547 -6.0872367793 
Mo -1.5773079433 4.5525730859 -0.0070296031 
S -1.5769141197 2.7313069925 -7.6506323570 
S -0.0006383055 3.6416542204 -1.5722034613 
S -1.5844528752 4.5632432959 4.4931460903 
S -1.5769132459 2.7313060890 -4.5222282367 
S 0.0005229498 3.6430815170 1.5606792724 
S -1.6089311476 4.5517942982 7.6335213873 
Mo -1.5881857640 8.2003908932 6.0577231272 
Mo -1.5769173901 6.3730391977 -6.0872367793 
Mo -3.1544631469 7.2837051647 -0.0092633398 
S -3.1538326896 5.4626062355 -7.6506323570 
S -1.5775195107 6.3724266855 -1.5739281410 
S -3.1633740047 7.2913280624 4.4897490554 
S -3.1538318159 5.4626053320 -4.5222282367 
S -1.5774535179 6.3745021698 1.5581508580 
S -3.1635367796 7.2910520988 7.6257492418 
Mo 3.1433993220 0.0030703020 6.0582125786 
Mo -3.1538359601 9.1043384407 -6.0872367793 
Mo -4.7314319672 10.0151462177 -0.0074924686 
S -4.7307512596 8.1939054785 -7.6506323570 
S -3.1551510548 9.1050809718 -1.5738833710 
S -4.7423486191 10.0214415655 4.4905677471 
S -4.7307503859 8.1939045750 -4.5222282367 
S -3.1539434660 9.1043822808 1.5577904634 
S -4.7417815028 10.0211198531 7.6251010222 
Mo 4.7161679172 2.7297269567 6.0814516310 
Mo 4.7307503218 0.9104407117 -6.0872367793 
Mo 3.1534596930 1.8215511507 -0.0081992100 
S 3.1538350223 0.0000077495 -7.6506323570 
S 4.7305436303 0.9113761950 -1.5737677390 
S 3.1466549166 1.8306104230 4.4994374286 
S 3.1538358961 0.0000068460 -4.5222282367 
S 4.7299373218 0.9102948672 1.5582059237 
S 3.1363692781 1.8125324256 7.6386307530 
Mo 3.1430385144 5.4688147826 6.1363358050 
Mo 3.1538317519 3.6417399547 -6.0872367793 
Mo 1.5765836653 4.5528054830 -0.0079652842 
S 1.5769164523 2.7313069925 -7.6506323570 
S 3.1532851686 3.6422815405 -1.5734134563 
S 1.5861075662 4.5731303544 4.5410113628 
S 1.5769173261 2.7313060890 -4.5222282367 
S 3.1531305828 3.6425299444 1.5594852865 
S 1.4907726671 4.5053636335 7.6739481864 
Mo 1.5598761340 8.2110477354 6.0771989668 
Mo 1.5769131819 6.3730391977 -6.0872367793 
Mo -0.0005181289 7.2837530550 -0.0094481050 
S -0.0000021176 5.4626062355 -7.6506323570 
S 1.5767142256 6.3731379728 -1.5741222736 
S -0.0046651541 7.2861433440 4.5031178706 
S -0.0000012439 5.4626053320 -4.5222282367 
S 1.5756647401 6.3737439745 1.5583943105 
S -0.0209913885 7.2955668412 7.6387540224 
Mo 6.2949068831 0.0073499169 6.0558687793 
Mo -0.0000053881 9.1043384407 -6.0872367793 
Mo -1.5774531779 10.0151752536 -0.0092616974 
S -1.5769206876 8.1939054785 -7.6506323570 
S 0.0002096841 9.1051424999 -1.5739268295 
S -1.5885089338 10.0190745808 4.4897467198 
S -1.5769198139 8.1939045750 -4.5222282367 
S -0.0015532652 9.1040468384 1.5581518083 
S -1.5883573091 10.0193569839 7.6257466991 
Mo 7.8714064447 2.7388935908 6.0592639105 
Mo 7.8845808939 0.9104407117 -6.0872367793 
Mo 6.3069496051 1.8214188151 -0.0076147909 
S 6.3076655943 0.0000077495 -7.6506323570 
S 7.8847205853 0.9108209956 -1.5720069258 
S 6.2869067420 1.8346660855 4.4976648064 
S 6.3076664681 0.0000068460 -4.5222282367 
S 7.8829280922 0.9106483006 1.5600408311 
S 6.3060543645 1.8149250609 7.6337677249 
Mo 6.3017198812 5.4759926102 6.0814554753 
Mo 6.3076623239 3.6417399547 -6.0872367793 
Mo 4.7297539984 4.5527312450 -0.0079031412 
S 4.7307470244 2.7313069925 -7.6506323570 
S 6.3070567462 3.6420718306 -1.5729709525 
S 4.6989752830 4.5704965186 4.5506633206 
S 4.7307478981 2.7313060890 -4.5222282367 
S 6.3057917003 3.6428036913 1.5596920080 
S 4.7990308649 4.5127261021 7.7015139086 
Mo 4.7320334528 8.2126930325 6.0644958825 
Mo 4.7307437539 6.3730391977 -6.0872367793 
Mo 3.1531001029 7.2834189666 -0.0079645483 
S 3.1538284544 5.4626062355 -7.6506323570 
S 4.7299876068 6.3732189964 -1.5734162081 
S 3.1402570677 7.2649987054 4.5410162919 
S 3.1538293281 5.4626053320 -4.5222282367 
S 4.7296965628 6.3732292024 1.5594874525 
S 3.1512724390 7.3814440928 7.6739547625 
Mo 9.4489556848 0.0078054949 6.0555795909 
Mo 3.1538251839 9.1043384407 -6.0872367793 
Mo 1.5763542975 10.0148862361 -0.0070280165 
S 1.5769098844 8.1939054785 -7.6506323570 
S 3.1535668426 9.1049088101 -1.5722043190 
S 1.5635401668 10.0157309286 4.4931494963 
S 1.5769107581 8.1939045750 -4.5222282367 
S 3.1529110802 9.1031892925 1.5606823219 
S 1.5612098691 10.0426546638 7.6335261804 
Mo -1.5899553181 2.7382392108 6.0555730821 
Mo 11.0384114659 0.9104407117 -6.0872367793 
Mo 9.4608688829 1.8212187042 -0.0061916695 
S 9.4614961663 0.0000077495 -7.6506323570 
S 11.0377943587 0.9107790090 -1.5714526563 
S 9.4469504923 1.8292476020 4.4898773642 
S 9.4614970401 0.0000068460 -4.5222282367 
S 11.0381368571 0.9105808095 1.5601906325 
S 9.4501924562 1.8273814677 7.6235882868 
Mo -3.1665882057 5.4699563700 6.0558681157 
Mo 9.4614928959 3.6417399547 -6.0872367793 
Mo 7.8837317348 4.5524963398 -0.0076162037 
S 7.8845775964 2.7313069925 -7.6506323570 
S 9.4612164803 3.6414031140 -1.5720075936 
S 7.8622328225 4.5632260480 4.4976647901 
S 7.8845784701 2.7313060890 -4.5222282367 
S 9.4604690588 3.6430434459 1.5600391209 
S 7.8889071421 4.5565120085 7.6337696825 
Mo -4.7386386182 8.2013810258 6.0582190220 
Mo 7.8845743259 6.3730391977 -6.0872367793 
Mo 6.3068706529 7.2834327846 -0.0082023339 
S 6.3076590264 5.4626062355 -7.6506323570 
S 7.8836464560 6.3727253248 -1.5737711132 
S 6.2956170200 7.2847902154 4.4994438826 
S 6.3076599001 5.4626053320 -4.5222282367 
S 7.8842791265 6.3737913415 1.5582046056 
S 6.3061342665 7.3027335673 7.6386400400 
Mo -0.0128990487 0.0074363439 6.0555575608 
Mo 6.3076557559 9.1043384407 -6.0872367793 
Mo 4.7301636569 10.0147337151 -0.0065193348 
S 4.7307404564 8.1939054785 -7.6506323570 
S 6.3068899555 9.1048100375 -1.5725367036 
S 4.7195573187 10.0195647632 4.4902083946 
S 4.7307413301 8.1939045750 -4.5222282367 
S 6.3072092643 9.1036304249 1.5595115360 
S 4.7213849039 10.0376690643 7.6305709693 
Pd 3.0718146724 5.5099229141 9.0966596686 
H 2.2233046469 5.9997553875 10.3505203233 

