num_wann            = 40
num_bands           = 40
translate_home_cell = true
guiding_centres     = true
write_xyz           = True
conv_tol            = 1e-10
conv_window         = 5
dis_num_iter        = 100000
iprint              = 2
num_iter            = 10000
mp_grid             : 1 1 1
gamma_only          = true
begin kpoints
  0.0000  0.0000  0.0000
end kpoints
begin atoms_cart
Ang
  H      12.882103100749376   17.981638862614517   14.946747200666124
  H      11.92730310074937   17.260638862614513   16.05794720066612
  O      12.627403100749376   17.960638862614516   15.91394720066613
  H      14.08270310074937   14.920438862614517   16.16094720066613
  H      13.905103100749372   16.504638862614527   16.51194720066613
  O      14.567503100749363   15.778638862614514   16.329947200666126
  H      14.53560310074937   13.590538862614522   13.014647200666133
  H      13.175303100749375   14.270138862614516   12.41924720066612
  O      13.557503100749372   13.455838862614527   12.856047200666126
  H      15.411503100749371   15.57163886261452   17.95294720066613
  H      14.858503100749374   14.342238862614522   18.873947200666123
  O      15.50050310074937   15.107638862614522   18.83394720066613
  H      11.926303100749365   13.822238862614526   15.787947200666125
  H      12.947503100749373   13.535838862614526   14.546047200666123
  O      12.823803100749373   13.460538862614527   15.53594720066613
  H      13.442403100749374   17.08363886261452   12.808947200666125
  H      12.673403100749368   16.334638862614526   11.578747200666129
  O      13.301503100749372   16.20863886261452   12.346547200666123
  H      18.590503100749373   15.605638862614526   12.307647200666125
  H      17.621503100749365   16.109638862614517   13.521347200666128
  O      17.644503100749375   15.785638862614519   12.575547200666122
  H      17.428503100749367   17.313638862614525   15.54194720066613
  H      16.309503100749367   16.123638862614527   15.527947200666134
  O      17.11350310074937   16.494638862614522   15.062447200666128
  H      15.61350310074937   12.341038862614525   16.995947200666123
  H      16.74450310074937   12.077038862614515   18.144947200666124
  O      16.58950310074937   12.390338862614527   17.207947200666126
  H      16.657503100749366   14.177438862614522   13.099947200666122
  H      16.977503100749374   12.584538862614522   12.935647200666125
  O      16.418503100749376   13.259738862614526   13.417347200666129
end atoms_cart
begin projections
  random
end projections
begin unit_cell_cart
Ang
  30.0     0.0     0.0
  0.0     30.0     0.0
  0.0     0.0     30.0
end_unit_cell_cart
