&CONTROL
   calculation      = 'relax'
   restart_mode     = 'from_scratch'
   wf_collect       = .true.
   nstep            = 1000
   tstress          = .false.
   tprnfor          = .true.
   outdir           = './outdir'
   pseudo_dir       = './pseudo'
/
&SYSTEM
   ecutwfc          = 77.0
   ecutrho          = 539.0
   nosym            = .true.
   occupations      = 'smearing'
   degauss          = 0.01
   smearing         = 'gaussian'
   assume_isolated  = 'esm'
   esm_bc           = 'bc1'
   vdw_corr         = 'dft-d3'
   dftd3_version    = 4
   ntyp             = 2
   nat              = 144
   ibrav            = 0
/
&ELECTRONS
   electron_maxstep = 1000
   conv_thr         = 1e-06
   mixing_beta      = 0.1
   diagonalization  = 'david'
/
&IONS
/
&CELL
/

ATOMIC_SPECIES
Mo 95.95 Mo.pbe-spn-kjpaw_psl.1.0.0.UPF
C 12.011 C.pbe-n-kjpaw_psl.1.0.0.UPF

K_POINTS automatic
2 2 1  0 0 0

CELL_PARAMETERS angstrom
12.03707724200361 0.00000000000000 0.00000000000000
-0.00000842786624 10.38171227799743 0.00000000000000
0.00000000000000 0.00000000000000 27.99491839826706

ATOMIC_POSITIONS angstrom
Mo 0.7392271268 0.4116609784 -6.4974548687  0 0 0
Mo 5.2792716252 4.7792074803 -4.0993813991  0 0 0
Mo 2.2700228412 3.0070779517 -6.4585630940  0 0 0
Mo 3.7485340062 2.1837762659 -4.1382946513  0 0 0
Mo 2.2700209252 4.7792014280 -4.1382832936  0 0 0
Mo 3.7485359146 0.4116545523 -6.4585490231  0 0 0
Mo 0.7392281493 2.1837751174 -4.0993909962  0 0 0
Mo 5.2792740478 3.0070703458 -6.4974591991  0 0 0
C 2.2717480839 1.2977056085 -2.9392505668  0 0 0
C 3.7468001844 3.8931553252 -2.9392414489  0 0 0
C 0.7375007205 3.8931474706 -5.2984248043  0 0 0
C 5.2810087430 1.2977035383 -5.2984205416  0 0 0
Mo 0.7392209582 0.4116608386 -1.7791045447 
Mo 5.2792654566 4.7792073405 0.6189689249 
Mo 2.2700166726 3.0070778119 -1.7402127700 
Mo 3.7485278376 2.1837761261 0.5800556727 
Mo 2.2700147565 4.7792012882 0.5800670304 
Mo 3.7485297459 0.4116544125 -1.7401986991 
Mo 0.7392219806 2.1837749776 0.6189593278 
Mo 5.2792678791 3.0070702060 -1.7791088751 
C 2.2717419153 1.2977054687 1.7790997572 
C 3.7467940157 3.8931551854 1.7791088751 
C 0.7374945518 3.8931473308 -0.5800744803 
C 5.2810025743 1.2977033985 -0.5800702176 
Mo 0.7392147895 0.4116606988 2.9392457793 
Mo 5.2792592879 4.7792072007 5.3373192489 
Mo 2.2700105039 3.0070776721 2.9781375540 
Mo 3.7485216689 2.1837759863 5.2984059967 
Mo 2.2700085878 4.7792011484 5.2984173544 
Mo 3.7485235773 0.4116542727 2.9781516249 
Mo 0.7392158120 2.1837748378 5.3373096518 
Mo 5.2792617105 3.0070700662 2.9392414489 
C 2.2717357466 1.2977053289 6.4974500812 
C 3.7467878470 3.8931550456 6.4974591991 
C 0.7374883832 3.8931471910 4.1382758437 
C 5.2809964057 1.2977032587 4.1382801064 
Mo 0.7392229129 5.6025171174 -6.4974548687  0 0 0
Mo 5.2792674113 9.9700636193 -4.0993813991  0 0 0
Mo 2.2700186273 8.1979340907 -6.4585630940  0 0 0
Mo 3.7485297923 7.3746324049 -4.1382946513  0 0 0
Mo 2.2700167112 9.9700575670 -4.1382832936  0 0 0
Mo 3.7485317007 5.6025106913 -6.4585490231  0 0 0
Mo 0.7392239354 7.3746312564 -4.0993909962  0 0 0
Mo 5.2792698338 8.1979264848 -6.4974591991  0 0 0
C 2.2717438700 6.4885617475 -2.9392505668  0 0 0
C 3.7467959704 9.0840114642 -2.9392414489  0 0 0
C 0.7374965066 9.0840036096 -5.2984248043  0 0 0
C 5.2810045290 6.4885596773 -5.2984205416  0 0 0
Mo 0.7392167442 5.6025169776 -1.7791045447 
Mo 5.2792612426 9.9700634795 0.6189689249 
Mo 2.2700124587 8.1979339509 -1.7402127700 
Mo 3.7485236236 7.3746322651 0.5800556727 
Mo 2.2700105426 9.9700574272 0.5800670304 
Mo 3.7485255320 5.6025105515 -1.7401986991 
Mo 0.7392177667 7.3746311166 0.6189593278 
Mo 5.2792636652 8.1979263450 -1.7791088751 
C 2.2717377014 6.4885616077 1.7790997572 
C 3.7467898018 9.0840113244 1.7791088751 
C 0.7374903379 9.0840034698 -0.5800744803 
C 5.2809983604 6.4885595375 -0.5800702176 
Mo 0.7392105756 5.6025168378 2.9392457793 
Mo 5.2792550740 9.9700633397 5.3373192489 
Mo 2.2700062900 8.1979338111 2.9781375540 
Mo 3.7485174550 7.3746321253 5.2984059967 
Mo 2.2700043739 9.9700572874 5.2984173544 
Mo 3.7485193634 5.6025104117 2.9781516249 
Mo 0.7392115981 7.3746309768 5.3373096518 
Mo 5.2792574965 8.1979262052 2.9392414489 
C 2.2717315327 6.4885614679 6.4974500812 
C 3.7467836331 9.0840111846 6.4974591991 
C 0.7374841693 9.0840033300 4.1382758437 
C 5.2809921917 6.4885593977 4.1382801064 
Mo 6.7577657478 0.4116609784 -6.4974548687  0 0 0
Mo 11.2978102462 4.7792074803 -4.0993813991  0 0 0
Mo 8.2885614622 3.0070779517 -6.4585630940  0 0 0
Mo 9.7670726272 2.1837762659 -4.1382946513  0 0 0
Mo 8.2885595462 4.7792014280 -4.1382832936  0 0 0
Mo 9.7670745356 0.4116545523 -6.4585490231  0 0 0
Mo 6.7577667703 2.1837751174 -4.0993909962  0 0 0
Mo 11.2978126688 3.0070703458 -6.4974591991  0 0 0
C 8.2902867049 1.2977056085 -2.9392505668  0 0 0
C 9.7653388054 3.8931553252 -2.9392414489  0 0 0
C 6.7560393415 3.8931474706 -5.2984248043  0 0 0
C 11.2995473640 1.2977035383 -5.2984205416  0 0 0
Mo 6.7577595792 0.4116608386 -1.7791045447 
Mo 11.2978040776 4.7792073405 0.6189689249 
Mo 8.2885552936 3.0070778119 -1.7402127700 
Mo 9.7670664586 2.1837761261 0.5800556727 
Mo 8.2885533775 4.7792012882 0.5800670304 
Mo 9.7670683669 0.4116544125 -1.7401986991 
Mo 6.7577606016 2.1837749776 0.6189593278 
Mo 11.2978065001 3.0070702060 -1.7791088751 
C 8.2902805363 1.2977054687 1.7790997572 
C 9.7653326367 3.8931551854 1.7791088751 
C 6.7560331728 3.8931473308 -0.5800744803 
C 11.2995411953 1.2977033985 -0.5800702176 
Mo 6.7577534105 0.4116606988 2.9392457793 
Mo 11.2977979089 4.7792072007 5.3373192489 
Mo 8.2885491249 3.0070776721 2.9781375540 
Mo 9.7670602899 2.1837759863 5.2984059967 
Mo 8.2885472088 4.7792011484 5.2984173544 
Mo 9.7670621983 0.4116542727 2.9781516249 
Mo 6.7577544330 2.1837748378 5.3373096518 
Mo 11.2978003315 3.0070700662 2.9392414489 
C 8.2902743676 1.2977053289 6.4974500812 
C 9.7653264681 3.8931550456 6.4974591991 
C 6.7560270042 3.8931471910 4.1382758437 
C 11.2995350267 1.2977032587 4.1382801064 
Mo 6.7577615339 5.6025171174 -6.4974548687  0 0 0
Mo 11.2978060323 9.9700636193 -4.0993813991  0 0 0
Mo 8.2885572483 8.1979340907 -6.4585630940  0 0 0
Mo 9.7670684133 7.3746324049 -4.1382946513  0 0 0
Mo 8.2885553322 9.9700575670 -4.1382832936  0 0 0
Mo 9.7670703217 5.6025106913 -6.4585490231  0 0 0
Mo 6.7577625564 7.3746312564 -4.0993909962  0 0 0
Mo 11.2978084548 8.1979264848 -6.4974591991  0 0 0
C 8.2902824910 6.4885617475 -2.9392505668  0 0 0
C 9.7653345914 9.0840114642 -2.9392414489  0 0 0
C 6.7560351276 9.0840036096 -5.2984248043  0 0 0
C 11.2995431500 6.4885596773 -5.2984205416  0 0 0
Mo 6.7577553652 5.6025169776 -1.7791045447 
Mo 11.2977998636 9.9700634795 0.6189689249 
Mo 8.2885510797 8.1979339509 -1.7402127700 
Mo 9.7670622446 7.3746322651 0.5800556727 
Mo 8.2885491636 9.9700574272 0.5800670304 
Mo 9.7670641530 5.6025105515 -1.7401986991 
Mo 6.7577563877 7.3746311166 0.6189593278 
Mo 11.2978022862 8.1979263450 -1.7791088751 
C 8.2902763224 6.4885616077 1.7790997572 
C 9.7653284228 9.0840113244 1.7791088751 
C 6.7560289589 9.0840034698 -0.5800744803 
C 11.2995369814 6.4885595375 -0.5800702176 
Mo 6.7577491966 5.6025168378 2.9392457793 
Mo 11.2977936950 9.9700633397 5.3373192489 
Mo 8.2885449110 8.1979338111 2.9781375540 
Mo 9.7670560760 7.3746321253 5.2984059967 
Mo 8.2885429949 9.9700572874 5.2984173544 
Mo 9.7670579844 5.6025104117 2.9781516249 
Mo 6.7577502191 7.3746309768 5.3373096518 
Mo 11.2977961175 8.1979262052 2.9392414489 
C 8.2902701537 6.4885614679 6.4974500812 
C 9.7653222541 9.0840111846 6.4974591991 
C 6.7560227903 9.0840033300 4.1382758437 
C 11.2995308127 6.4885593977 4.1382801064 

