&CONTROL
   calculation      = 'nscf'
   verbosity        = 'high'
   restart_mode     = 'from_scratch'
   wf_collect       = .true.
   outdir           = './outdir'
   pseudo_dir       = './pseudo'
/
&SYSTEM
   nbnd             = 1266
   ecutwfc          = 77.0
   ecutrho          = 539.0
   occupations      = 'tetrahedra'
   assume_isolated  = 'esm'
   esm_bc           = 'bc1'
   vdw_corr         = 'dft-d3'
   dftd3_version    = 4
   ntyp             = 3
   nat              = 145
   ibrav            = 0
/
&ELECTRONS
   electron_maxstep = 1000
   conv_thr         = 1e-06
   mixing_beta      = 0.2
   diagonalization  = 'david'
/
&IONS
/
&CELL
/

ATOMIC_SPECIES
Mo 95.95 Mo.pbe-spn-kjpaw_psl.1.0.0.UPF
S 32.06 S.pbe-n-kjpaw_psl.1.0.0.UPF
Pd 106.42 Pd.pbe-spn-kjpaw_psl.1.0.0.UPF

K_POINTS automatic
2 2 1  0 0 0

CELL_PARAMETERS angstrom
12.61532217525308 0.00000000000000 0.00000000000000
-6.30767370294872 10.92519700214573 0.00000000000000
0.00000000000000 0.00000000000000 30.30125956094956

ATOMIC_POSITIONS angstrom
Mo 1.5768922120 2.7159222028 6.0764905622 
Mo 1.5769197498 0.9104407117 -6.0872367793 
Mo -0.0000086427 1.8209327785 -0.0010833172 
S 0.0000044503 0.0000077495 -7.6506323570 
S 1.5769012234 0.9103772291 -1.5664435084 
S -0.0041111965 1.8182008636 4.5135136600 
S 0.0000053241 0.0000068460 -4.5222282367 
S 1.5768996319 0.9104510938 1.5661830699 
S -0.0007464312 1.8178908806 7.6513433043 
Mo -0.0032941794 5.4606915468 6.0890506306 
Mo 0.0000011799 3.6417399547 -6.0872367793 
Mo -1.5769305169 4.5521748355 -0.0008220098 
S -1.5769141197 2.7313069925 -7.6506323570 
S -0.0000269157 3.6418459084 -1.5663441371 
S -1.5754472676 4.5530079334 4.5205360091 
S -1.5769132459 2.7313060890 -4.5222282367 
S 0.0001687010 3.6417951253 1.5662965501 
S -1.5762198327 4.5525617246 7.6574994431 
Mo -1.5902381532 8.2015570439 6.0764980180 
Mo -1.5769173901 6.3730391977 -6.0872367793 
Mo -3.1537930713 7.2834437795 -0.0010875343 
S -3.1538326896 5.4626062355 -7.6506323570 
S -1.5768520779 6.3729854538 -1.5663583437 
S -3.1581907774 7.2812313938 4.5135196662 
S -3.1538318159 5.4626053320 -4.5222282367 
S -1.5767978466 6.3731811168 1.5663079510 
S -3.1567809789 7.2842965356 7.6513435792 
Mo 3.1555975781 0.0010116753 6.0812937711 
Mo -3.1538359601 9.1043384407 -6.0872367793 
Mo -4.7307752523 10.0147597770 -0.0009318924 
S -4.7307512596 8.1939054785 -7.6506323570 
S -3.1538982834 9.1043500128 -1.5664680829 
S -4.7307777745 10.0147455129 4.5179234304 
S -4.7307503859 8.1939045750 -4.5222282367 
S -3.1538321120 9.1043127452 1.5661979943 
S -4.7307775422 10.0147452496 7.6484570663 
Mo 4.7305121568 2.7324006390 6.0854935063 
Mo 4.7307503218 0.9104407117 -6.0872367793 
Mo 3.1537956965 1.8209311905 -0.0010840570 
S 3.1538350223 0.0000077495 -7.6506323570 
S 4.7306639958 0.9103934816 -1.5666764216 
S 3.1578977408 1.8181999989 4.5135139390 
S 3.1538358961 0.0000068460 -4.5222282367 
S 4.7309174884 0.9105342798 1.5655666235 
S 3.1545341992 1.8178909900 7.6513399642 
Mo 3.1570802729 5.4606942176 6.0890479739 
Mo 3.1538317519 3.6417399547 -6.0872367793 
Mo 1.5768893359 4.5523422305 -0.0008790335 
S 1.5769164523 2.7313069925 -7.6506323570 
S 3.1538084421 3.6418391337 -1.5663502237 
S 1.5768926639 4.5493075390 4.5291363095 
S 1.5769173261 2.7313060890 -4.5222282367 
S 3.1536180765 3.6417931876 1.5662951547 
S 1.5768921033 4.5371359953 7.6716136451 
Mo 1.5768927494 8.1976579860 6.0890510895 
Mo 1.5769131819 6.3730391977 -6.0872367793 
Mo 0.0001225149 7.2833768467 -0.0008815816 
S -0.0000021176 5.4626062355 -7.6506323570 
S 1.5768802994 6.3730324350 -1.5664129425 
S -0.0024825265 7.2848667857 4.5291408712 
S -0.0000012439 5.4626053320 -4.5222282367 
S 1.5768880474 6.3730368223 1.5669451692 
S -0.0130146862 7.2909453702 7.6716196949 
Mo 6.3085064233 -0.0007604041 6.0854946505 
Mo -0.0000053881 9.1043384407 -6.0872367793 
Mo -1.5768980439 10.0147173154 -0.0010866572 
S -1.5769206876 8.1939054785 -7.6506323570 
S 0.0000557432 9.1042739281 -1.5663639099 
S -1.5771918717 10.0196067544 4.5135200669 
S -1.5769198139 8.1939045750 -4.5222282367 
S -0.0000838735 9.1041321419 1.5663058827 
S -1.5791430053 10.0168535660 7.6513434361 
Mo 7.8845556465 2.7312810342 6.0859090413 
Mo 7.8845808939 0.9104407117 -6.0872367793 
Mo 6.3076841838 1.8208935712 -0.0013104923 
S 6.3076655943 0.0000077495 -7.6506323570 
S 7.8845482823 0.9102596847 -1.5665871562 
S 6.3079283309 1.8210155990 4.5206648729 
S 6.3076664681 0.0000068460 -4.5222282367 
S 7.8845487118 0.9106076267 1.5661329710 
S 6.3074932840 1.8207663192 7.6541497840 
Mo 6.3065622730 5.4622068902 6.0854925503 
Mo 6.3076623239 3.6417399547 -6.0872367793 
Mo 4.7307092636 4.5521740226 -0.0008319840 
S 4.7307470244 2.7313069925 -7.6506323570 
S 6.3074887692 3.6418175431 -1.5665933917 
S 4.7292302638 4.5530095048 4.5205342109 
S 4.7307478981 2.7313060890 -4.5222282367 
S 6.3077920056 3.6416438580 1.5661370226 
S 4.7300013232 4.5525652058 7.6574993554 
Mo 4.7440256973 8.2015659313 6.0764845517 
Mo 4.7307437539 6.3730391977 -6.0872367793 
Mo 3.1536491915 7.2833774120 -0.0008896913 
S 3.1538284544 5.4626062355 -7.6506323570 
S 4.7306253164 6.3729790892 -1.5663628413 
S 3.1562673109 7.2848687334 4.5291344271 
S 3.1538293281 5.4626053320 -4.5222282367 
S 4.7305682092 6.3731762295 1.5662909035 
S 3.1668201224 7.2909607633 7.6716067904 
Mo 9.4606118910 -0.0007595504 6.0854946648 
Mo 3.1538251839 9.1043384407 -6.0872367793 
Mo 1.5768814121 10.0147513802 -0.0008327069 
S 1.5769098844 8.1939054785 -7.6506323570 
S 3.1537012378 9.1042774263 -1.5663642767 
S 1.5768868571 10.0130241556 4.5205361156 
S 1.5769107581 8.1939045750 -4.5222282367 
S 3.1538462621 9.1041288249 1.5662939108 
S 1.5768867399 10.0139148167 7.6574988870 
Mo -1.5767243360 2.7323990931 6.0854949352 
Mo 11.0384114659 0.9104407117 -6.0872367793 
Mo 9.4614202268 1.8208969641 -0.0013085198 
S 9.4614961663 0.0000077495 -7.6506323570 
S 11.0384456211 0.9104009583 -1.5666702454 
S 9.4611845698 1.8210157569 4.5206640422 
S 9.4614970401 0.0000068460 -4.5222282367 
S 11.0381912027 0.9105362698 1.5655569449 
S 9.4616176768 1.8207642488 7.6541512265 
Mo -3.1527797085 5.4622064197 6.0854945010 
Mo 9.4614928959 3.6417399547 -6.0872367793 
Mo 7.8845510648 4.5521111623 -0.0013112128 
S 7.8845775964 2.7313069925 -7.6506323570 
S 9.4616166487 3.6418254441 -1.5665880263 
S 7.8845540132 4.5518149458 4.5206650139 
S 7.8845784701 2.7313060890 -4.5222282367 
S 9.4613071603 3.6416475131 1.5661365246 
S 7.8845507003 4.5523164672 7.6541492175 
Mo -4.7307709364 8.1918189226 6.0812934002 
Mo 7.8845743259 6.3730391977 -6.0872367793 
Mo 6.3075673751 7.2834425583 -0.0010963474 
S 6.3076590264 5.4626062355 -7.6506323570 
S 7.8845544049 6.3731026622 -1.5666737219 
S 6.3119772098 7.2812312685 4.5135110200 
S 6.3076599001 5.4626053320 -4.5222282367 
S 7.8845480594 6.3728136541 1.5655567664 
S 6.3105599459 7.2842988447 7.6513387520 
Mo -0.0018041266 0.0010150714 6.0812930162 
Mo 6.3076557559 9.1043384407 -6.0872367793 
Mo 4.7306639184 10.0147170631 -0.0010942110 
S 4.7307404564 8.1939054785 -7.6506323570 
S 6.3076813940 9.1043506481 -1.5664584163 
S 4.7309651952 10.0196177162 4.5135119311 
S 4.7307413301 8.1939045750 -4.5222282367 
S 6.3076067303 9.1043088936 1.5661814747 
S 4.7329158229 10.0168554525 7.6513419792 
Pd 1.5769429031 6.3730128150 9.2097027479 

