&CONTROL
   calculation      = 'relax'
   restart_mode     = 'from_scratch'
   wf_collect       = .true.
   nstep            = 1000
   tstress          = .false.
   tprnfor          = .true.
   outdir           = './outdir'
   pseudo_dir       = './pseudo'
/
&SYSTEM
   ecutwfc          = 77.0
   ecutrho          = 539.0
   nosym            = .true.
   occupations      = 'smearing'
   degauss          = 0.01
   smearing         = 'gaussian'
   assume_isolated  = 'esm'
   esm_bc           = 'bc1'
   vdw_corr         = 'dft-d3'
   dftd3_version    = 4
   ntyp             = 3
   nat              = 145
   ibrav            = 0
/
&ELECTRONS
   electron_maxstep = 1000
   conv_thr         = 1e-06
   mixing_beta      = 0.2
   diagonalization  = 'david'
/
&IONS
/
&CELL
/

ATOMIC_SPECIES
Mo 95.95 Mo.pbe-spn-kjpaw_psl.1.0.0.UPF
S 32.06 S.pbe-n-kjpaw_psl.1.0.0.UPF
Pt 195.084 Pt.pbe-spfn-kjpaw_psl.1.0.0.UPF

K_POINTS automatic
2 2 1  0 0 0

CELL_PARAMETERS angstrom
12.61532217525308 0.00000000000000 0.00000000000000
-6.30767370294872 10.92519700214573 0.00000000000000
0.00000000000000 0.00000000000000 30.30125956094956

ATOMIC_POSITIONS angstrom
Mo 1.5768940032 2.7312805631 6.0850343866 
Mo 1.5769197498 0.9104407117 -6.0872367793  0 0 0
Mo -0.0000233445 1.8208669809 -0.0009470481 
S 0.0000044503 0.0000077495 -7.6506323570  0 0 0
S 1.5768927757 0.9104377874 -1.5664076215 
S -0.0000207017 1.8208507346 4.5193521109 
S 0.0000053241 0.0000068460 -4.5222282367  0 0 0
S 1.5768922396 0.9104368700 1.5662555513 
S -0.0000192510 1.8208503352 7.6539693938 
Mo -0.0000269593 5.4625800512 6.0850349504 
Mo 0.0000011799 3.6417399547 -6.0872367793  0 0 0
Mo -1.5769270739 4.5521531230 -0.0009381365 
S -1.5769141197 2.7313069925 -7.6506323570  0 0 0
S -0.0000215810 3.6417320970 -1.5664027742 
S -1.5769403614 4.5521473973 4.5193510659 
S -1.5769132459 2.7313060890 -4.5222282367  0 0 0
S -0.0000214467 3.6417303437 1.5662570089 
S -1.5769405859 4.5521476392 7.6539681659 
Mo -1.5769462962 8.1938794653 6.0850349312 
Mo -1.5769173901 6.3730391977 -6.0872367793  0 0 0
Mo -3.1538549751 7.2834589383 -0.0009417400 
S -3.1538326896 5.4626062355 -7.6506323570  0 0 0
S -1.5769393687 6.3730269350 -1.5663925213 
S -3.1538599948 7.2834463591 4.5193507939 
S -3.1538318159 5.4626053320 -4.5222282367  0 0 0
S -1.5769412425 6.3730281908 1.5662529785 
S -3.1538593942 7.2834457152 7.6539698156 
Mo 3.1538114375 -0.0000171003 6.0850365924 
Mo -3.1538359601 9.1043384407 -6.0872367793  0 0 0
Mo -4.7307896871 10.0147837294 -0.0009469942 
S -4.7307512596 8.1939054785 -7.6506323570  0 0 0
S -3.1538607715 9.1043306738 -1.5663929214 
S -4.7307744980 10.0147454947 4.5193511772 
S -4.7307503859 8.1939045750 -4.5222282367  0 0 0
S -3.1538655210 9.1043316960 1.5662483739 
S -4.7307748145 10.0147446340 7.6539676321 
Mo 4.7307224729 2.7312807495 6.0850327259 
Mo 4.7307503218 0.9104407117 -6.0872367793  0 0 0
Mo 3.1537958906 1.8208723636 -0.0009456604 
S 3.1538350223 0.0000077495 -7.6506323570  0 0 0
S 4.7307230907 0.9104342803 -1.5663992515 
S 3.1538096374 1.8208495678 4.5193503370 
S 3.1538358961 0.0000068460 -4.5222282367  0 0 0
S 4.7307225368 0.9104377585 1.5662530771 
S 3.1538098883 1.8208494092 7.6539699956 
Mo 3.1538061406 5.4625793351 6.0850340875 
Mo 3.1538317519 3.6417399547 -6.0872367793  0 0 0
Mo 1.5768879520 4.5521703481 -0.0009425406 
S 1.5769164523 2.7313069925 -7.6506323570  0 0 0
S 3.1538019528 3.6417333563 -1.5664035807 
S 1.5768913355 4.5521467790 4.5193514353 
S 1.5769173261 2.7313060890 -4.5222282367  0 0 0
S 3.1538024768 3.6417327685 1.5662556465 
S 1.5768916335 4.5521469018 7.6539682549 
Mo 1.5768849201 8.1938799791 6.0850361581 
Mo 1.5769131819 6.3730391977 -6.0872367793  0 0 0
Mo -0.0000138117 7.2834593190 -0.0009405243 
S -0.0000021176 5.4626062355 -7.6506323570  0 0 0
S 1.5768881234 6.3730290062 -1.5664032417 
S -0.0000286893 7.2834455104 4.5193515191 
S -0.0000012439 5.4626053320 -4.5222282367  0 0 0
S 1.5768896300 6.3730287574 1.5662595446 
S -0.0000283841 7.2834455489 7.6539698173 
Mo 6.3076401495 -0.0000179994 6.0850346946 
Mo -0.0000053881 9.1043384407 -6.0872367793  0 0 0
Mo -1.5769395100 10.0147690765 -0.0009383352 
S -1.5769206876 8.1939054785 -7.6506323570  0 0 0
S -0.0000297095 9.1043280833 -1.5663987461 
S -1.5769483222 10.0147472265 4.5193483619 
S -1.5769198139 8.1939045750 -4.5222282367  0 0 0
S -0.0000273373 9.1043301495 1.5662546074 
S -1.5769466686 10.0147454643 7.6539727826 
Mo 7.8845545106 2.7312835742 6.0850356724 
Mo 7.8845808939 0.9104407117 -6.0872367793  0 0 0
Mo 6.3076423920 1.8208645929 -0.0009468898 
S 6.3076655943 0.0000077495 -7.6506323570  0 0 0
S 7.8845577023 0.9104350856 -1.5664053009 
S 6.3076389070 1.8208501475 4.5193507588 
S 6.3076664681 0.0000068460 -4.5222282367  0 0 0
S 7.8845561385 0.9104347220 1.5662556208 
S 6.3076398546 1.8208493045 7.6539687771 
Mo 6.3076371532 5.4625806349 6.0850375262 
Mo 6.3076623239 3.6417399547 -6.0872367793  0 0 0
Mo 4.7307004013 4.5521643710 -0.0009444785 
S 4.7307470244 2.7313069925 -7.6506323570  0 0 0
S 6.3076332968 3.6417343043 -1.5663970520 
S 4.7307230102 4.5521470754 4.5193509998 
S 4.7307478981 2.7313060890 -4.5222282367  0 0 0
S 6.3076317544 3.6417337908 1.5662504879 
S 4.7307222130 4.5521451437 7.6539681640 
Mo 4.7307201306 8.1938793169 6.0850352153 
Mo 4.7307437539 6.3730391977 -6.0872367793  0 0 0
Mo 3.1537938761 7.2834621111 -0.0009433724 
S 3.1538284544 5.4626062355 -7.6506323570  0 0 0
S 4.7307155085 6.3730292381 -1.5664021037 
S 3.1538030619 7.2834455507 4.5193516628 
S 3.1538293281 5.4626053320 -4.5222282367  0 0 0
S 4.7307167100 6.3730298054 1.5662526739 
S 3.1538033893 7.2834450609 7.6539682695 
Mo 9.4614730886 -0.0000152585 6.0850373749 
Mo 3.1538251839 9.1043384407 -6.0872367793  0 0 0
Mo 1.5768901884 10.0147684087 -0.0009485224 
S 1.5769098844 8.1939054785 -7.6506323570  0 0 0
S 3.1538009488 9.1043280880 -1.5664050329 
S 1.5768835215 10.0147469608 4.5193498872 
S 1.5769107581 8.1939045750 -4.5222282367  0 0 0
S 3.1538000160 9.1043291329 1.5662551005 
S 1.5768830454 10.0147469187 7.6539728461 
Mo -1.5769363531 2.7312826278 6.0850343829 
Mo 11.0384114659 0.9104407117 -6.0872367793  0 0 0
Mo 9.4614771618 1.8208562479 -0.0009444676 
S 9.4614961663 0.0000077495 -7.6506323570  0 0 0
S 11.0383873197 0.9104350036 -1.5664079029 
S 9.4614699261 1.8208506249 4.5193524470 
S 9.4614970401 0.0000068460 -4.5222282367  0 0 0
S 11.0383882338 0.9104349322 1.5662571620 
S 9.4614701778 1.8208514028 7.6539688698 
Mo -3.1538548371 5.4625824522 6.0850334205 
Mo 9.4614928959 3.6417399547 -6.0872367793  0 0 0
Mo 7.8845487894 4.5521597617 -0.0009422736 
S 7.8845775964 2.7313069925 -7.6506323570  0 0 0
S 9.4614701108 3.6417310217 -1.5663953751 
S 7.8845506202 4.5521488753 4.5193506083 
S 7.8845784701 2.7313060890 -4.5222282367  0 0 0
S 9.4614675156 3.6417305210 1.5662519447 
S 7.8845534191 4.5521482539 7.6539704148 
Mo -4.7307722874 8.1938804471 6.0850344913 
Mo 7.8845743259 6.3730391977 -6.0872367793  0 0 0
Mo 6.3076213959 7.2834677727 -0.0009482942 
S 6.3076590264 5.4626062355 -7.6506323570  0 0 0
S 7.8845487285 6.3730298581 -1.5663942010 
S 6.3076355794 7.2834444566 4.5193523836 
S 6.3076599001 5.4626053320 -4.5222282367  0 0 0
S 7.8845453570 6.3730307392 1.5662478831 
S 6.3076368181 7.2834451223 7.6539696165 
Mo -0.0000153734 -0.0000163511 6.0850349431 
Mo 6.3076557559 9.1043384407 -6.0872367793  0 0 0
Mo 4.7307066983 10.0147739622 -0.0009450354 
S 4.7307404564 8.1939054785 -7.6506323570  0 0 0
S 6.3076275330 9.1043314330 -1.5664018173 
S 4.7307152859 10.0147468205 4.5193514102 
S 4.7307413301 8.1939045750 -4.5222282367  0 0 0
S 6.3076282294 9.1043313762 1.5662500026 
S 4.7307156940 10.0147457023 7.6539702304 
Pt 3.1540000000 4.5520000000 9.4540000000 

