&CONTROL
   calculation      = 'scf'
   restart_mode     = 'from_scratch'
   wf_collect       = .true.
   tstress          = .false.
   tprnfor          = .true.
   outdir           = './outdir'
   pseudo_dir       = './pseudo'
/
&SYSTEM
   ecutwfc          = 77.0
   ecutrho          = 539.0
   occupations      = 'smearing'
   degauss          = 0.01
   smearing         = 'gaussian'
   assume_isolated  = 'esm'
   esm_bc           = 'bc1'
   vdw_corr         = 'dft-d3'
   dftd3_version    = 4
   ntyp             = 3
   nat              = 145
   ibrav            = 0
   nosym            = .true.
/
&ELECTRONS
   electron_maxstep = 1000
   conv_thr         = 1e-06
   mixing_beta      = 0.2
   diagonalization  = 'david'
/
&IONS
/
&CELL
/

ATOMIC_SPECIES
Mo 95.95 Mo.pbe-spn-kjpaw_psl.1.0.0.UPF
S 32.06 S.pbe-n-kjpaw_psl.1.0.0.UPF
H 1.008 H.pbe-kjpaw_psl.1.0.0.UPF

K_POINTS automatic
2 2 1  0 0 0

CELL_PARAMETERS angstrom
12.61532217525308 0.00000000000000 0.00000000000000
-6.30767370294872 10.92519700214573 0.00000000000000
0.00000000000000 0.00000000000000 30.30125956094956

ATOMIC_POSITIONS angstrom
Mo 1.5768925844 2.7333792548 6.0805215157 
Mo 1.5769197498 0.9104407117 -6.0872367793 
Mo 0.0000552239 1.8208445796 -0.0011084032 
S 0.0000044503 0.0000077495 -7.6506323570 
S 1.5768950199 0.9103285329 -1.5664426202 
S 0.0029903298 1.8202385675 4.5178217686 
S 0.0000053241 0.0000068460 -4.5222282367 
S 1.5768911734 0.9105811899 1.5661757759 
S 0.0034951290 1.8244235198 7.6537657496 
Mo 0.0002061182 5.4627180061 6.0782069754 
Mo 0.0000011799 3.6417399547 -6.0872367793 
Mo -1.5769894741 4.5521317571 -0.0009118983 
S -1.5769141197 2.7313069925 -7.6506323570 
S -0.0000199710 3.6417508192 -1.5664141330 
S -1.5836856792 4.5482516185 4.5141414812 
S -1.5769132459 2.7313060890 -4.5222282367 
S 0.0000016004 3.6417694900 1.5662374460 
S -1.5770112982 4.5521066924 7.6518738394 
Mo -1.5751264564 8.1928297873 6.0805248466 
Mo -1.5769173901 6.3730391977 -6.0872367793 
Mo -3.1538391898 7.2835374320 -0.0011062838 
S -3.1538326896 5.4626062355 -7.6506323570 
S -1.5769226051 6.3730168768 -1.5664074959 
S -3.1528807269 7.2863582516 4.5178192978 
S -3.1538318159 5.4626053320 -4.5222282367 
S -1.5768937859 6.3730245587 1.5662335561 
S -3.1490070315 7.2847034704 7.6537654844 
Mo 3.1540595112 0.0001247362 6.0849770024 
Mo -3.1538359601 9.1043384407 -6.0872367793 
Mo -4.7307775051 10.0147659546 -0.0008158308 
S -4.7307512596 8.1939054785 -7.6506323570 
S -3.1539515947 9.1043844498 -1.5664403679 
S -4.7307769393 10.0147460947 4.5199910953 
S -4.7307503859 8.1939045750 -4.5222282367 
S -3.1537344341 9.1042583363 1.5661770479 
S -4.7307759309 10.0147452753 7.6522912770 
Mo 4.7271314897 2.7318572499 6.0846782557 
Mo 4.7307503218 0.9104407117 -6.0872367793 
Mo 3.1537317505 1.8208453332 -0.0011080840 
S 3.1538350223 0.0000077495 -7.6506323570 
S 4.7307224431 0.9104323267 -1.5665250076 
S 3.1507971714 1.8202388795 4.5178204783 
S 3.1538358961 0.0000068460 -4.5222282367 
S 4.7308062276 0.9104796814 1.5658908573 
S 3.1502925409 1.8244225110 7.6537653709 
Mo 3.1535689725 5.4627152429 6.0782045434 
Mo 3.1538317519 3.6417399547 -6.0872367793 
Mo 1.5768896602 4.5523936147 -0.0011127391 
S 1.5769164523 2.7313069925 -7.6506323570 
S 3.1538027863 3.6417509441 -1.5664119652 
S 1.5768914348 4.5490349707 4.5149229239 
S 1.5769173261 2.7313060890 -4.5222282367 
S 3.1537847667 3.6417750172 1.5662351056 
S 1.5768910448 4.6219373117 7.6794672577 
Mo 1.5768818534 8.1936080242 6.0782066947 
Mo 1.5769131819 6.3730391977 -6.0872367793 
Mo 0.0001723865 7.2833504528 -0.0011111318 
S -0.0000021176 5.4626062355 -7.6506323570 
S 1.5768859788 6.3730324990 -1.5668067950 
S -0.0027234328 7.2850022039 4.5149185808 
S -0.0000012439 5.4626053320 -4.5222282367 
S 1.5768897099 6.3730329000 1.5658588885 
S 0.0603603661 7.2485800553 7.6794316859 
Mo 6.3063452412 -0.0034171039 6.0846785534 
Mo -0.0000053881 9.1043384407 -6.0872367793 
Mo -1.5770018042 10.0147104197 -0.0011064052 
S -1.5769206876 8.1939054785 -7.6506323570 
S -0.0000104468 9.1043230316 -1.5664087388 
S -1.5789796340 10.0124427731 4.5178197985 
S -1.5769198139 8.1939045750 -4.5222282367 
S -0.0000006444 9.1042938948 1.5662345018 
S -1.5756101547 10.0099144086 7.6537654175 
Mo 7.8845538767 2.7312815672 6.0855733342 
Mo 7.8845808939 0.9104407117 -6.0872367793 
Mo 6.3077133511 1.8209087118 -0.0011491822 
S 6.3076655943 0.0000077495 -7.6506323570 
S 7.8845567901 0.9103755616 -1.5665160133 
S 6.3067138888 1.8203137000 4.5209744467 
S 6.3076664681 0.0000068460 -4.5222282367 
S 7.8845557078 0.9106039362 1.5661174381 
S 6.3056577512 1.8197038815 7.6525363498 
Mo 6.3053405536 5.4654050938 6.0846796973 
Mo 6.3076623239 3.6417399547 -6.0872367793 
Mo 4.7307644801 4.5521415986 -0.0009135506 
S 4.7307470244 2.7313069925 -7.6506323570 
S 6.3075873941 3.6417604134 -1.5665164953 
S 4.7374711204 4.5482509105 4.5141396879 
S 4.7307478981 2.7313060890 -4.5222282367 
S 6.3077822228 3.6416450130 1.5661165407 
S 4.7307931948 4.5521052667 7.6518714063 
Mo 4.7288976520 8.1928292329 6.0805196320 
Mo 4.7307437539 6.3730391977 -6.0872367793 
Mo 3.1536014003 7.2833511813 -0.0011145998 
S 3.1538284544 5.4626062355 -7.6506323570 
S 4.7307007403 6.3730193868 -1.5664121037 
S 3.1565002950 7.2850025831 4.5149257154 
S 3.1538293281 5.4626053320 -4.5222282367 
S 4.7306685049 6.3730245486 1.5662304339 
S 3.0933284576 7.2485300881 7.6794896294 
Mo 9.4627702899 -0.0034196623 6.0846812702 
Mo 3.1538251839 9.1043384407 -6.0872367793 
Mo 1.5768874872 10.0148262061 -0.0009160449 
S 1.5769098844 8.1939054785 -7.6506323570 
S 3.1537835769 9.1043224373 -1.5664144645 
S 1.5768854235 10.0225366504 4.5141407416 
S 1.5769107581 8.1939045750 -4.5222282367 
S 3.1537760178 9.1042907553 1.5662334376 
S 1.5768832842 10.0148271121 7.6518721302 
Mo -1.5733442057 2.7318581672 6.0846806445 
Mo 11.0384114659 0.9104407117 -6.0872367793 
Mo 9.4613957684 1.8209087856 -0.0011484556 
S 9.4614961663 0.0000077495 -7.6506323570 
S 11.0383863260 0.9104331958 -1.5665284544 
S 9.4623969285 1.8203133626 4.5209770147 
S 9.4614970401 0.0000068460 -4.5222282367 
S 11.0383049524 0.9104791305 1.5658870281 
S 9.4634517913 1.8197039319 7.6525373032 
Mo -3.1515607446 5.4654033882 6.0846790590 
Mo 9.4614928959 3.6417399547 -6.0872367793 
Mo 7.8845515588 4.5520793387 -0.0011470597 
S 7.8845775964 2.7313069925 -7.6506323570 
S 9.4615201468 3.6417604890 -1.5665113542 
S 7.8845516453 4.5532169249 4.5209751298 
S 7.8845784701 2.7313060890 -4.5222282367 
S 9.4613209253 3.6416440067 1.5661160747 
S 7.8845517473 4.5544355721 7.6525373248 
Mo -4.7307737090 8.1935930286 6.0849778283 
Mo 7.8845743259 6.3730391977 -6.0872367793 
Mo 6.3076126375 7.2835396210 -0.0011091760 
S 6.3076590264 5.4626062355 -7.6506323570 
S 7.8845488321 6.3730336609 -1.5665250237 
S 6.3066544997 7.2863602114 4.5178196685 
S 6.3076599001 5.4626053320 -4.5222282367 
S 7.8845481335 6.3729396959 1.5658905118 
S 6.3027783218 7.2847047346 7.6537662721 
Mo -0.0002671940 0.0001258620 6.0849785909 
Mo 6.3076557559 9.1043384407 -6.0872367793 
Mo 4.7307710447 10.0147089533 -0.0011093433 
S 4.7307404564 8.1939054785 -7.6506323570 
S 6.3077216518 9.1043848901 -1.5664420326 
S 4.7327497164 10.0124413428 4.5178218733 
S 4.7307413301 8.1939045750 -4.5222282367 
S 6.3075001459 9.1042600451 1.5661753043 
S 4.7293771072 10.0099104708 7.6537657686 
H 1.5770850471 6.3729899706 8.5496691624 

