&CONTROL
   calculation      = 'relax'
   restart_mode     = 'from_scratch'
   wf_collect       = .true.
   nstep            = 9999
   tstress          = .false.
   tprnfor          = .true.
   outdir           = '/scratch/calc/outdir'
   pseudo_dir       = './pseudo'
/
&SYSTEM
   ecutwfc          = 36
   ecutrho          = 400
   nosym            = .true.
   occupations      = 'smearing'
   degauss          = 0.01
   smearing         = 'gaussian'
   vdw_corr         = 'dft-d3'
   dftd3_version    = 4
   ntyp             = 4
   nat              = 144
   ibrav            = 0
/
&ELECTRONS
   electron_maxstep = 9999
   conv_thr         = 1e-06
   mixing_beta      = 0.2
   diagonalization  = 'david'
/
&IONS
/
&CELL
/

ATOMIC_SPECIES
O 15.999 O.pbe-n-kjpaw_psl.1.0.0.UPF
N 14.007 N.pbe-n-kjpaw_psl.1.0.0.UPF
C 12.011 C.pbe-n-kjpaw_psl.1.0.0.UPF
H 1.008 H.pbe-kjpaw_psl.1.0.0.UPF

K_POINTS automatic
2 2 2  0 0 0

CELL_PARAMETERS angstrom
17.01330000000000 0.00000000000000 0.00000000000000
0.00000000000000 4.86900000000000 0.00000000000000
-1.01390176265464 0.00000000000000 17.06590809818469

ATOMIC_POSITIONS angstrom
O 11.1327132167 4.0037787000 5.4542642282 
O 5.3736359020 1.5692787000 3.0786898209 
O 4.8666850207 0.8652213000 11.6116438700 
O 10.6257623353 3.2997213000 13.9872182773 
O 13.3218096201 2.2762575000 3.0001866437 
O 3.1845394985 4.7107575000 5.5327674054 
O 2.6775886172 2.5927425000 14.0657214545 
O 12.8148587388 0.1582425000 11.5331406928 
N 12.2983958673 0.6281010000 4.1896804381 
N 4.2079532514 3.0626010000 4.3432736110 
N 3.7010023701 4.2408990000 12.8762276601 
N 11.7914449859 1.8063990000 12.7226344872 
C 8.3324798734 3.3484113000 2.3875205429 
C 8.1738692453 0.9139113000 6.1454335062 
C 7.6669183639 1.5205887000 14.6783875552 
C 7.8255289921 3.9550887000 10.9204745920 
C 9.2600171075 3.5246691000 3.4131816196 
C 7.2463320112 1.0901691000 5.1197724295 
C 6.7393811299 1.3443309000 13.6527264785 
C 8.7530662261 3.7788309000 11.9461356687 
C 10.2762058902 4.4351721000 3.2903070813 
C 6.2301432285 2.0006721000 5.2426469678 
C 5.7231923472 0.4338279000 13.7756010169 
C 9.7692550088 2.8683279000 11.8232611304 
C 10.3889011421 0.3340134000 2.1093462409 
C 6.1174479765 2.7685134000 6.4236078082 
C 5.6104970952 4.5349866000 14.9565618572 
C 9.8819502608 2.1004866000 10.6423002900 
C 11.4432289161 1.2712959000 1.9745255670 
C 5.0631202026 3.7057959000 6.5584284821 
C 4.5561693213 3.5977041000 15.0913825312 
C 10.9362780347 1.1632041000 10.5074796161 
C 11.5628085752 2.0031066000 0.8208701795 
C 4.9435405435 4.4376066000 7.7120838696 
C 4.4365896621 2.8658934000 16.2450379187 
C 11.0558576939 0.4313934000 9.3538242286 
C 9.6341914001 1.8458379000 16.8457578837 
C 5.8582559559 4.2803379000 8.7531042636 
C 6.3652068373 3.0231621000 0.2201502145 
C 10.1411422814 0.5886621000 8.3128038346 
C 8.5773957807 0.9499419000 16.9362071966 
C 6.9150515753 3.3844419000 8.6626549506 
C 7.4220024566 3.9190581000 0.1297009015 
C 9.0843466621 1.4845581000 8.4032531475 
C 9.4490713404 0.1762578000 1.0614994837 
C 7.0572777783 2.6107578000 7.4714545654 
C 6.5503268970 4.6927422000 16.0044086145 
C 8.9421204590 2.2582422000 9.5944535328 
C 8.3986308743 4.0860648000 1.2167992474 
C 8.1077182443 1.6515648000 7.3161548017 
C 7.6007673630 0.7829352000 15.8491088508 
C 7.8916799930 3.2174352000 9.7497532965 
C 11.2484177461 4.6075347000 4.3944713353 
C 5.2579313726 2.1730347000 4.1384827138 
C 4.7509804912 0.2614653000 12.6714367629 
C 10.7414668648 2.6959653000 12.9274253844 
C 12.4335693640 1.4509620000 3.0599173220 
C 4.0727797547 3.8854620000 5.4730367271 
C 3.5658288734 3.4180380000 14.0059907762 
C 11.9266184826 0.9835380000 11.5928713711 
C 13.3132869694 0.7347321000 5.2341140137 
C 3.1930621493 3.1692321000 3.2988400354 
C 2.6861112680 4.1342679000 11.8317940845 
C 12.8063360881 1.6997679000 13.7670680628 
C 14.4808150349 0.0107118000 5.0839340224 
C 2.0255340838 2.4452118000 3.4490200266 
C 1.5185832024 4.8582882000 11.9819740757 
C 13.9738641536 2.4237882000 13.6168880715 
C 15.4908718364 0.1504521000 6.0379182851 
C 1.0154772823 2.5849521000 2.4950357640 
C 0.5085264010 4.7185479000 11.0279898130 
C 14.9839209550 2.2840479000 14.5708723342 
C 15.2655724557 0.9908415000 7.1096573137 
C 1.2407766630 3.4253415000 1.4232967354 
C 0.7338257817 3.8781585000 9.9562507845 
C 14.7586215744 1.4436585000 15.6426113628 
C 14.0894363500 1.7163225000 7.2615438958 
C 2.4169127687 4.1508225000 1.2714101533 
C 1.9099618874 3.1526775000 9.8043642024 
C 13.5824854687 0.7181775000 15.7944979449 
C 13.0988039098 1.5804774000 6.2956134974 
C 3.4075452089 4.0149774000 2.2373405517 
C 2.9005943276 3.2885226000 10.7702946008 
C 12.5918530284 0.8540226000 14.8285675465 
C -0.2332154595 4.2506370000 5.9013910204 
C 16.7395645782 1.8161370000 2.6315630287 
C 16.2326136969 0.6183630000 11.1645170778 
C -0.7401663409 3.0528630000 14.4343450694 
C 13.8921815489 2.6433801000 8.4339717821 
C 2.6141675698 0.2088801000 0.0989822670 
C 2.1072166884 2.2256199000 8.6319363161 
C 13.3852306676 4.6601199000 16.9669258312 
H 7.6388563625 2.7061902000 2.4933291731 
H 8.8674927562 0.2716902000 6.0396248759 
H 8.3605418749 2.1628098000 14.5725789250 
H 7.1319054811 4.5973098000 11.0262832222 
H 9.1856493955 3.0075813000 4.2067463462 
H 7.3206997232 0.5730813000 4.3262077029 
H 6.8137488418 1.8614187000 12.8591617520 
H 8.6786985142 4.2959187000 12.7397003953 
H 12.3365750735 2.7597492000 0.7406604115 
H 4.1697740452 0.3252492000 7.7922936376 
H 3.6628231638 2.1092508000 16.3252476867 
H 11.8296241922 4.5437508000 9.2736144606 
H 9.8061087819 2.3858100000 15.9566240718 
H 5.6863385741 4.8203100000 9.6422380755 
H 6.1932894554 2.4831900000 1.1092840264 
H 10.3130596632 0.0486900000 7.4236700227 
H 14.6020311685 4.0612329000 4.2750099786 
H 1.9043179502 1.6267329000 4.2579440705 
H 1.3973670689 0.8077671000 12.7908981196 
H 14.0950802871 3.2422671000 12.8079640277 
H 15.9566227664 1.0215162000 7.8776231781 
H 0.5497263523 3.4560162000 0.6553308710 
H 0.0427754710 3.8474838000 9.1882849201 
H 15.4496718850 1.4129838000 16.4105772272 
H 12.0941857854 2.1696264000 6.3382782677 
H 4.4121633333 4.6041264000 2.1946757814 
H 3.9052124520 2.6993736000 10.7276298305 
H 11.5872349040 0.2648736000 14.8712323168 
H 16.5977380599 3.3226056000 5.9065107928 
H -0.0913889413 0.8881056000 2.6264432563 
H -0.5983398226 1.5463944000 11.1593973054 
H 16.0907871786 3.9808944000 14.4394648419 
H 0.1880430951 4.4901918000 5.0822274316 
H 16.3183060236 2.0556918000 3.4507266175 
H 15.8113551423 0.3788082000 11.9836806665 
H -0.3189077862 2.8133082000 13.6151814807 
H 0.3412765056 4.4702289000 6.6266921145 
H 16.1650726131 2.0357289000 1.9062619346 
H 15.6581217318 0.3987711000 10.4392159837 
H -0.1656743758 2.8332711000 15.1596461636 
H 14.6621561114 2.6185482000 8.9903203861 
H 0.8302912446 0.1840482000 16.6085417612 
H 1.3372421259 2.2504518000 8.0755877121 
H 15.1691069928 4.6849518000 0.4573663370 
H 13.7578190315 3.5285643000 8.1182524823 
H 2.7485300872 1.0940643000 0.4147015668 
H 2.2415792058 1.3404357000 8.9476556159 
H 13.2508681502 3.7749357000 16.6512065314 
H 13.1327050474 2.3658471000 8.9322962986 
H 2.3597423086 4.8003471000 16.6665658487 
H 2.8666931899 2.5031529000 8.1336117996 
H 13.6396559288 0.0686529000 0.3993422495 

