&CONTROL
   calculation      = 'nscf'
   verbosity        = 'high'
   restart_mode     = 'from_scratch'
   wf_collect       = .true.
   outdir           = './outdir'
   pseudo_dir       = './pseudo'
/
&SYSTEM
   nbnd             = 1267
   ecutwfc          = 77.0
   ecutrho          = 539.0
   occupations      = 'tetrahedra'
   assume_isolated  = 'esm'
   esm_bc           = 'bc1'
   vdw_corr         = 'dft-d3'
   dftd3_version    = 4
   ntyp             = 4
   nat              = 146
   ibrav            = 0
/
&ELECTRONS
   electron_maxstep = 1000
   conv_thr         = 1e-06
   mixing_beta      = 0.2
   diagonalization  = 'david'
/
&IONS
/
&CELL
/

ATOMIC_SPECIES
Mo 95.95 Mo.pbe-spn-kjpaw_psl.1.0.0.UPF
S 32.06 S.pbe-n-kjpaw_psl.1.0.0.UPF
Pd 106.42 Pd.pbe-spn-kjpaw_psl.1.0.0.UPF
H 1.008 H.pbe-kjpaw_psl.1.0.0.UPF

K_POINTS automatic
2 2 1  0 0 0

CELL_PARAMETERS angstrom
12.61532217525308 0.00000000000000 0.00000000000000
-6.30767370294872 10.92519700214573 0.00000000000000
0.00000000000000 0.00000000000000 30.30125956094956

ATOMIC_POSITIONS angstrom
Mo 1.5595971525 2.7369742559 6.0525707585 
Mo 1.5769197498 0.9104407117 -6.0872367793 
Mo 0.0009557519 1.8260824394 -0.0111239512 
S 0.0000044503 0.0000077495 -7.6506323570 
S 1.5764139683 0.9158166546 -1.5783161792 
S -0.0143681104 1.8448794696 4.4796402233 
S 0.0000053241 0.0000068460 -4.5222282367 
S 1.5788352467 0.9153281206 1.5538324078 
S -0.0244538945 1.8324811803 7.6196178038 
Mo -0.0227826660 5.4842090128 6.0705778491 
Mo 0.0000011799 3.6417399547 -6.0872367793 
Mo -1.5757344591 4.5573466245 -0.0107444480 
S -1.5769141197 2.7313069925 -7.6506323570 
S 0.0003828334 3.6464009426 -1.5763825208 
S -1.5842028180 4.5786352320 4.4876519984 
S -1.5769132459 2.7313060890 -4.5222282367 
S 0.0025452696 3.6478933527 1.5563606936 
S -1.6078492228 4.5676253127 7.6276340456 
Mo -1.5912369571 8.2155878480 6.0538096321 
Mo -1.5769173901 6.3730391977 -6.0872367793 
Mo -3.1529580298 7.2884312534 -0.0137775514 
S -3.1538326896 5.4626062355 -7.6506323570 
S -1.5760635044 6.3765419140 -1.5779300847 
S -3.1640827170 7.3050096181 4.4857784079 
S -3.1538318159 5.4626053320 -4.5222282367 
S -1.5759554834 6.3797528577 1.5542116327 
S -3.1659117858 7.3043266617 7.6223656429 
Mo 3.1426035547 0.0181981426 6.0511085751 
Mo -3.1538359601 9.1043384407 -6.0872367793 
Mo -4.7301719756 10.0198837720 -0.0137424089 
S -4.7307512596 8.1939054785 -7.6506323570 
S -3.1534420029 9.1089861913 -1.5794560014 
S -4.7410903532 10.0342601157 4.4834613683 
S -4.7307503859 8.1939045750 -4.5222282367 
S -3.1527163425 9.1099724846 1.5519721343 
S -4.7439047488 10.0380625477 7.6172784858 
Mo 4.7128646177 2.7457387262 6.0686405345 
Mo 4.7307503218 0.9104407117 -6.0872367793 
Mo 3.1545514407 1.8258884413 -0.0144544502 
S 3.1538350223 0.0000077495 -7.6506323570 
S 4.7319859173 0.9157717329 -1.5798023391 
S 3.1442100080 1.8424427761 4.4877464430 
S 3.1538358961 0.0000068460 -4.5222282367 
S 4.7310229684 0.9150781698 1.5519693955 
S 3.1331475324 1.8309969622 7.6274301807 
Mo 3.1436448234 5.4846979193 6.1286556687 
Mo 3.1538317519 3.6417399547 -6.0872367793 
Mo 1.5781427462 4.5573846486 -0.0127109143 
S 1.5769164523 2.7313069925 -7.6506323570 
S 3.1542897859 3.6469309127 -1.5790627607 
S 1.5855060780 4.5906484632 4.5315286345 
S 1.5769173261 2.7313060890 -4.5222282367 
S 3.1549426199 3.6463241500 1.5536265388 
S 1.4932659530 4.5202903588 7.6651605234 
Mo 1.5609326294 8.2259614026 6.0706188730 
Mo 1.5769131819 6.3730391977 -6.0872367793 
Mo 0.0009813716 7.2883283773 -0.0138913652 
S -0.0000021176 5.4626062355 -7.6506323570 
S 1.5778759756 6.3774297143 -1.5787023045 
S -0.0075776905 7.3032338682 4.4988011988 
S -0.0000012439 5.4626053320 -4.5222282367 
S 1.5776853840 6.3786841560 1.5536876608 
S -0.0207655705 7.3102198839 7.6320794160 
Mo 6.2925580584 0.0214988076 6.0491262120 
Mo -0.0000053881 9.1043384407 -6.0872367793 
Mo -1.5759221318 10.0197847190 -0.0151093284 
S -1.5769206876 8.1939054785 -7.6506323570 
S 0.0017168813 9.1089697106 -1.5792294306 
S -1.5895983875 10.0314288481 4.4841741227 
S -1.5769198139 8.1939045750 -4.5222282367 
S 0.0000163931 9.1093093851 1.5527602461 
S -1.5900895238 10.0353657723 7.6212958582 
Mo 7.8676338571 2.7538159508 6.0519040220 
Mo 7.8845808939 0.9104407117 -6.0872367793 
Mo 6.3083211229 1.8260730416 -0.0133226823 
S 6.3076655943 0.0000077495 -7.6506323570 
S 7.8863591662 0.9155963970 -1.5775104157 
S 6.2842561056 1.8478561055 4.4887232069 
S 6.3076664681 0.0000068460 -4.5222282367 
S 7.8839344848 0.9151539527 1.5544405214 
S 6.2988415901 1.8309945738 7.6243683763 
Mo 6.3010572415 5.4924168159 6.0704035265 
Mo 6.3076623239 3.6417399547 -6.0872367793 
Mo 4.7312591278 4.5571840482 -0.0135742474 
S 4.7307470244 2.7313069925 -7.6506323570 
S 6.3092827623 3.6470747177 -1.5778851947 
S 4.6965287063 4.5886607127 4.5389587671 
S 4.7307478981 2.7313060890 -4.5222282367 
S 6.3067908333 3.6472721102 1.5546143688 
S 4.8023402637 4.5267622005 7.6894571916 
Mo 4.7315453866 8.2300827276 6.0581892907 
Mo 4.7307437539 6.3730391977 -6.0872367793 
Mo 3.1547261126 7.2878662523 -0.0133863889 
S 3.1538284544 5.4626062355 -7.6506323570 
S 4.7317380225 6.3776736999 -1.5790409600 
S 3.1432802435 7.2817288498 4.5345361724 
S 3.1538293281 5.4626053320 -4.5222282367 
S 4.7315386453 6.3778023033 1.5536563785 
S 3.1511170177 7.3939947413 7.6699640976 
Mo 9.4466667697 0.0251044211 6.0493564259 
Mo 3.1538251839 9.1043384407 -6.0872367793 
Mo 1.5777732169 10.0194531983 -0.0127932534 
S 1.5769098844 8.1939054785 -7.6506323570 
S 3.1551686690 9.1092045125 -1.5776799002 
S 1.5627866852 10.0304872687 4.4867873040 
S 1.5769107581 8.1939045750 -4.5222282367 
S 3.1538955257 9.1076526975 1.5551057442 
S 1.5595264553 10.0578591971 7.6266532346 
Mo -1.5926808346 2.7537970055 6.0492025890 
Mo 11.0384114659 0.9104407117 -6.0872367793 
Mo 9.4621552685 1.8259523891 -0.0110973559 
S 9.4614961663 0.0000077495 -7.6506323570 
S 11.0392227298 0.9154805831 -1.5761238896 
S 9.4436407167 1.8457049663 4.4831059045 
S 9.4614970401 0.0000068460 -4.5222282367 
S 11.0390791192 0.9151722296 1.5552218437 
S 9.4457265680 1.8443467643 7.6185175448 
Mo -3.1669937668 5.4843191759 6.0506906620 
Mo 9.4614928959 3.6417399547 -6.0872367793 
Mo 7.8853355095 4.5573694160 -0.0117266227 
S 7.8845775964 2.7313069925 -7.6506323570 
S 9.4629638740 3.6465931265 -1.5759860183 
S 7.8633346001 4.5777742422 4.4898838313 
S 7.8845784701 2.7313060890 -4.5222282367 
S 9.4619264320 3.6474768398 1.5558683099 
S 7.8849677056 4.5718166429 7.6255156804 
Mo -4.7397149395 8.2159632225 6.0536580761 
Mo 7.8845743259 6.3730391977 -6.0872367793 
Mo 6.3084457491 7.2882295013 -0.0136586967 
S 6.3076590264 5.4626062355 -7.6506323570 
S 7.8855907741 6.3771098769 -1.5783384083 
S 6.2957907199 7.3041001842 4.4923732520 
S 6.3076599001 5.4626053320 -4.5222282367 
S 7.8853718614 6.3791830851 1.5537031308 
S 6.3025500486 7.3169841670 7.6320009662 
Mo -0.0135392232 0.0236358982 6.0450294183 
Mo 6.3076557559 9.1043384407 -6.0872367793 
Mo 4.7313663749 10.0193166301 -0.0117153597 
S 4.7307404564 8.1939054785 -7.6506323570 
S 6.3077208766 9.1093219192 -1.5781681240 
S 4.7165304549 10.0367719234 4.4828487440 
S 4.7307413301 8.1939045750 -4.5222282367 
S 6.3089012759 9.1088207941 1.5537766534 
S 4.7214583443 10.0562922893 7.6222200371 
Pd 3.0747756575 5.5064056076 9.0866379747 
H 2.2314063447 5.9427610586 10.3601784946 

