&CONTROL
   calculation      = 'relax'
   restart_mode     = 'from_scratch'
   wf_collect       = .true.
   nstep            = 1000
   tstress          = .false.
   tprnfor          = .true.
   outdir           = './outdir'
   pseudo_dir       = './pseudo'
/
&SYSTEM
   ecutwfc          = 77.0
   ecutrho          = 539.0
   nosym            = .true.
   occupations      = 'smearing'
   degauss          = 0.01
   smearing         = 'gaussian'
   assume_isolated  = 'esm'
   esm_bc           = 'bc1'
   vdw_corr         = 'dft-d3'
   dftd3_version    = 4
   ntyp             = 3
   nat              = 196
   ibrav            = 0
/
&ELECTRONS
   electron_maxstep = 1000
   conv_thr         = 1e-06
   mixing_beta      = 0.2
   diagonalization  = 'david'
/
&IONS
/
&CELL
/

ATOMIC_SPECIES
Mo 95.95 Mo.pbe-spn-kjpaw_psl.1.0.0.UPF
S 32.06 S.pbe-n-kjpaw_psl.1.0.0.UPF
Pt 195.084 Pt.pbe-spfn-kjpaw_psl.1.0.0.UPF

K_POINTS automatic
2 2 1  0 0 0

CELL_PARAMETERS angstrom
12.60495876880469 0.00000000000000 0.00000000000000
-6.30246677944357 10.91622202271285 0.00000000000000
0.00000000000000 0.00000000000000 36.46614571815195

ATOMIC_POSITIONS angstrom
Mo 0.0000119917 1.8193638619 -9.1672481230  0 0 0
Mo 1.5756136568 0.9097075315 -3.0554901653  0 0 0
S 0.0000188998 1.8193822938 -4.6232556019  0 0 0
S 1.5756321638 0.9096773839 -7.6014065489  0 0 0
S 1.5756326175 0.9096785128 -10.7330757790  0 0 0
S 0.0000189190 1.8193860094 -1.4877129945  0 0 0
Mo 0.0002901684 1.8197933646 3.0570413804 
Mo 1.5754523187 0.9140841671 9.1713656032 
S 0.0026386688 1.8244132479 7.5962244726 
S 1.5759321732 0.9099989320 4.6248469350 
S 1.5757816353 0.9099798880 1.4890680111 
S -0.0003449089 1.8137554157 10.7503019461 
Mo -1.5756053507 4.5484193819 -9.1672481230  0 0 0
Mo 0.0000378379 3.6387394919 -3.0554952701  0 0 0
S -1.5755913433 4.5484363582 -4.6232494962  0 0 0
S 0.0000148214 3.6387329039 -7.6014065489  0 0 0
S 0.0000152751 3.6387340328 -10.7330757790  0 0 0
S -1.5755906502 4.5484413613 -1.4877305502  0 0 0
Mo -1.5755669195 4.5486809601 3.0566128635 
Mo -0.0078276651 3.6262147340 9.1781440204 
S -1.5756016522 4.5516688620 7.6006255965 
S -0.0001364215 3.6392831038 4.6247810148 
S 0.0003841401 3.6390122698 1.4890319067 
S -1.5820331648 4.5484178010 10.7398977604 
Mo -3.1512226931 7.2774749019 -9.1672481230  0 0 0
Mo -1.5755910988 6.3678216792 -3.0555115988  0 0 0
S -3.1512162438 7.2774954350 -4.6232578178  0 0 0
S -1.5756025210 6.3677884239 -7.6014065489  0 0 0
S -1.5756020673 6.3677895528 -10.7330757790  0 0 0
S -3.1512127704 7.2774877076 -1.4877200710  0 0 0
Mo -3.1510917392 7.2777658144 3.0567240250 
Mo -1.5913379819 6.3739620585 9.1760325597 
S -3.1501927521 7.2826653752 7.5975304679 
S -1.5757002439 6.3677838142 4.6245664100 
S -1.5753104640 6.3681730578 1.4888816071 
S -3.1502734783 7.2888860681 10.7532969333 
Mo -4.7268400355 10.0065304219 -9.1672481230  0 0 0
Mo -3.1512405618 9.0968403586 -3.0554816746  0 0 0
S -4.7268341792 10.0065523623 -4.6232463762  0 0 0
S -3.1512198634 9.0968439439 -7.6014065489  0 0 0
S -3.1512194097 9.0968450728 -10.7330757790  0 0 0
S -4.7268370797 10.0065537885 -1.4877176751  0 0 0
Mo -4.7265915314 10.0068782377 3.0568221601 
Mo -3.1502295705 9.1006435799 9.1716475211 
S -4.7225558294 10.0125609182 7.6014133960 
S -3.1510824699 9.0970471429 4.6246121495 
S -3.1510996336 9.0971814124 1.4888684669 
S -4.7142278307 10.0189168654 10.7434378848 
Mo 3.1512517547 1.8193638619 -9.1672481230  0 0 0
Mo 4.7269020221 0.9097289540 -3.0554823951  0 0 0
S 3.1512612351 1.8193882564 -4.6232320683  0 0 0
S 4.7268719268 0.9096773839 -7.6014065489  0 0 0
S 4.7268723805 0.9096785128 -10.7330757790  0 0 0
S 3.1512592485 1.8193890201 -1.4877261251  0 0 0
Mo 3.1513790237 1.8196968418 3.0569707950 
Mo 4.7290016356 0.9140617660 9.1714059164 
S 3.1522487767 1.8252906645 7.6046950819 
S 4.7268300721 0.9099918984 4.6248506074 
S 4.7269651164 0.9099837338 1.4890687731 
S 3.1522354707 1.8019407887 10.7468307359 
Mo 1.5756344123 4.5484193819 -9.1672481230  0 0 0
Mo 3.1512756394 3.6387769522 -3.0554814834  0 0 0
S 1.5756504879 4.5484423799 -4.6232390542  0 0 0
S 3.1512545844 3.6387329039 -7.6014065489  0 0 0
S 3.1512550381 3.6387340328 -10.7330757790  0 0 0
S 1.5756466253 4.5484431864 -1.4877251801  0 0 0
Mo 1.5757195108 4.5488078224 3.0571537239 
Mo 3.1522333324 3.6272956159 9.1910292647 
S 1.5689833707 4.5347092069 7.6208199606 
S 3.1513800337 3.6391652230 4.6248814195 
S 3.1513797021 3.6391800312 1.4892577247 
S 1.5588025631 4.4664811793 10.7999991530 
Mo 0.0000170699 7.2774749019 -9.1672481230  0 0 0
Mo 1.5756764447 6.3678236689 -3.0554877708  0 0 0
S 0.0000381981 7.2774979204 -4.6232454413  0 0 0
S 1.5756372420 6.3677884239 -7.6014065489  0 0 0
S 1.5756376957 6.3677895528 -10.7330757790  0 0 0
S 0.0000328088 7.2774946042 -1.4877307940  0 0 0
Mo 0.0001101793 7.2776487457 3.0570003792 
Mo 1.5250781430 6.3440908729 9.1665337325 
S -0.0176639917 7.2827183477 7.6149936411 
S 1.5750104097 6.3677180480 4.6259743116 
S 1.5762761340 6.3683869924 1.4897930737 
S -0.0779551103 7.3112290403 10.7939597738 
Mo -1.5756002725 10.0065304219 -9.1672481230  0 0 0
Mo 0.0000873425 9.0968676911 -3.0554912329  0 0 0
S -1.5755883952 10.0065504530 -4.6232240150  0 0 0
S 0.0000198996 9.0968439439 -7.6014065489  0 0 0
S 0.0000203533 9.0968450728 -10.7330757790  0 0 0
S -1.5755859047 10.0065492576 -1.4877362381  0 0 0
Mo -1.5755884698 10.0068782571 3.0568185447 
Mo -0.0099565952 9.1103599994 9.1801416521 
S -1.5778554251 10.0125170719 7.6014851208 
S -0.0001735146 9.0969970020 4.6244294775 
S 0.0003629288 9.0971514006 1.4892285031 
S -1.5862715128 10.0189174350 10.7435217447 
Mo 6.3024915177 1.8193638619 -9.1672481230  0 0 0
Mo 7.8781001445 0.9096521684 -3.0554919963  0 0 0
S 6.3025008696 1.8193826232 -4.6232480596  0 0 0
S 7.8781116898 0.9096773839 -7.6014065489  0 0 0
S 7.8781121435 0.9096785128 -10.7330757790  0 0 0
S 6.3025042007 1.8193849068 -1.4877147524  0 0 0
Mo 6.3024660972 1.8197924090 3.0570532824 
Mo 7.8701447471 0.9224362819 9.1673985737 
S 6.3017820215 1.8243745494 7.5962651992 
S 7.8784076218 0.9106907732 4.6246003003 
S 7.8781352140 0.9099641757 1.4892520204 
S 6.3047950903 1.8138083642 10.7503013079 
Mo 4.7268741753 4.5484193819 -9.1672481230  0 0 0
Mo 6.3024679138 3.6387501714 -3.0554895197  0 0 0
S 4.7268748770 4.5484386753 -4.6232519432  0 0 0
S 6.3024943474 3.6387329039 -7.6014065489  0 0 0
S 6.3024948011 3.6387340328 -10.7330757790  0 0 0
S 4.7268770533 4.5484432419 -1.4877137856  0 0 0
Mo 4.7270438179 4.5488078726 3.0571694138 
Mo 6.3122956530 3.6262346482 9.1780914801 
S 4.7354727721 4.5347253599 7.6207805853 
S 6.3029078139 3.6392806774 4.6247992850 
S 6.3023624557 3.6390130780 1.4890490232 
S 4.7457252758 4.4665733578 10.7998803333 
Mo 3.1512568329 7.2774749019 -9.1672481230  0 0 0
Mo 4.7268384135 6.3678043337 -3.0554959052  0 0 0
S 3.1512606125 7.2774972547 -4.6232589675  0 0 0
S 4.7268770050 6.3677884239 -7.6014065489  0 0 0
S 4.7268774587 6.3677895528 -10.7330757790  0 0 0
S 3.1512629079 7.2774963749 -1.4877081835  0 0 0
Mo 3.1513851129 7.2777491608 3.0586088442 
Mo 4.7794590936 6.3441458279 9.1664194452 
S 3.1522035978 7.2654545898 7.6280011936 
S 4.7277636133 6.3677207687 4.6259849523 
S 4.7264885170 6.3683856611 1.4898093746 
S 3.1523724669 7.3097686336 10.5783991176 
Mo 1.5756394905 10.0065304219 -9.1672481230  0 0 0
Mo 3.1512330605 9.0968514907 -3.0554878870  0 0 0
S 1.5756499830 10.0065443759 -4.6232632674  0 0 0
S 3.1512596626 9.0968439439 -7.6014065489  0 0 0
S 3.1512601163 9.0968450728 -10.7330757790  0 0 0
S 1.5756503041 10.0065459699 -1.4877044377  0 0 0
Mo 1.5757824251 10.0069992341 3.0574032262 
Mo 3.1522506270 9.1638220698 9.1290948085 
S 1.5524720575 10.0294361128 7.5933571486 
S 3.1513896185 9.0977799238 4.6263333729 
S 3.1513838143 9.0967650257 1.4901427064 
S 1.5443792835 10.0458324514 10.7713688553 
Mo 9.4537312807 1.8193638619 -9.1672481230  0 0 0
Mo 11.0293863460 0.9096952246 -3.0554894007  0 0 0
S 9.4537395970 1.8193770750 -4.6232328036  0 0 0
S 11.0293514528 0.9096773839 -7.6014065489  0 0 0
S 11.0293519066 0.9096785128 -10.7330757790  0 0 0
S 9.4537393632 1.8193794783 -1.4877366147  0 0 0
Mo 9.4538582718 1.8200898389 3.0567524154 
Mo 11.0392490891 0.9224669978 9.1673544205 
S 9.4546613611 1.8282528189 7.5953102393 
S 11.0293223345 0.9106978241 4.6245960385 
S 11.0295611202 0.9099590396 1.4892464591 
S 9.4547002072 1.8267649949 10.7321493962 
Mo 7.8781139383 4.5484193819 -9.1672481230  0 0 0
Mo 9.4537539161 3.6387607911 -3.0554933032  0 0 0
S 7.8781175448 4.5484378232 -4.6232366318  0 0 0
S 9.4537341104 3.6387329039 -7.6014065489  0 0 0
S 9.4537345641 3.6387340328 -10.7330757790  0 0 0
S 7.8781194018 4.5484411585 -1.4877377057  0 0 0
Mo 7.8783316147 4.5486792623 3.0566265670 
Mo 9.4546944970 3.6429822099 9.1674557528 
S 7.8800561974 4.5516657228 7.6005686464 
S 9.4538736020 3.6394156576 4.6248170523 
S 9.4538484955 3.6390052952 1.4886447651 
S 7.8864655083 4.5484728503 10.7398445284 
Mo 6.3024965959 7.2774749019 -9.1672481230  0 0 0
Mo 7.8781361655 6.3678242352 -3.0555014130  0 0 0
S 6.3024973331 7.2774953556 -4.6232392528  0 0 0
S 7.8781167680 6.3677884239 -7.6014065489  0 0 0
S 7.8781172217 6.3677895528 -10.7330757790  0 0 0
S 6.3024989866 7.2774929744 -1.4877349119  0 0 0
Mo 6.3026637689 7.2776496158 3.0570191086 
Mo 7.8958177411 6.3739923914 9.1759469853 
S 6.3221854284 7.2827683841 7.6148697505 
S 7.8784935131 6.3677858116 4.6245788151 
S 7.8780623748 6.3681697687 1.4888966897 
S 6.3824118533 7.3112496868 10.7937918759 
Mo 4.7268792535 10.0065304219 -9.1672481230  0 0 0
Mo 6.3025111524 9.0968738021 -3.0554915260  0 0 0
S 4.7268840634 10.0065452125 -4.6232380477  0 0 0
S 6.3024994256 9.0968439439 -7.6014065489  0 0 0
S 6.3024998793 9.0968450728 -10.7330757790  0 0 0
S 4.7268847312 10.0065459141 -1.4877283294  0 0 0
Mo 4.7269952984 10.0069996268 3.0574080251 
Mo 6.3144474908 9.1104024049 9.1800074013 
S 4.7519660500 10.0295059343 7.5932719742 
S 6.3029623840 9.0970054146 4.6244401077 
S 6.3024000348 9.0971450062 1.4892388882 
S 4.7602477531 10.0458645812 10.7713054382 
Pt 1.7379927907 6.4418445494 12.1170858491 
Pt 4.5667450716 6.4416364726 12.1172713642 
Pt 3.1527579474 8.8551151227 12.2103984042 
Pt 3.1520000000 7.3100000000 14.2170000000 

