SystemName	siesta
SystemLabel	siesta

%block ExternalElectricField
0.0 0.0 -0.0514220632 V/Ang
%endblock ExternalElectricField
MaxSCFIterations	2000
SCF.DM.Tolerance	1e-08
SCFMustConverge	False
SolutionMethod	diagon
WriteCoorCerius	True
WriteCoorStep	True
WriteCoorXmol	True
WriteForces	True
WriteMDHistory	True
WriteMDXmol	True
siesta2Wannier90.WriteAmn	True
siesta2Wannier90.WriteEig	True
siesta2Wannier90.WriteMmn	True
siesta2Wannier90.WriteUnk	False

Spin     	non-polarized
XC.functional	GGA
XC.authors	PBE

MeshCutoff	680.2846506091811	eV
PAO.EnergyShift	0.1	eV

NumberOfSpecies	4
NumberOfAtoms	57
%block ChemicalSpecieslabel
    1 6 C.gga.1
    2 1 H.gga.2
    3 7 N.gga.3
    4 30 Zn.gga.4
%endblock ChemicalSpecieslabel

%block PAO.BasisSizes
    C.gga.1	SZ
    H.gga.2	SZ
    N.gga.3	SZ
    Zn.gga.4	SZ
%endblock PAO.BasisSizes


LatticeConstant	1.0 Ang
%block LatticeVectors
    30.000000000000000     0.000000000000000     0.000000000000000 
    0.000000000000000     30.000000000000000     0.000000000000000 
    0.000000000000000     0.000000000000000     30.000000000000000 
%endblock LatticeVectors


AtomicCoordinatesFormat  Ang
%block AtomicCoordinatesAndAtomicSpecies
    15.746803423     17.086747000     16.986478333 1
    17.203478423     16.996968000     15.139509333 1
    17.358631423     15.753655000     13.296337333 1
    13.931435423     15.966212000     17.641758333 1
    15.373497423     17.629787000     18.284325333 1
    14.234450423     16.926601000     18.696909333 1
    13.638227423     17.200305000     19.926571333 1
    14.213518423     18.186414000     20.712445333 1
    15.348003423     18.889114000     20.297054333 1
    15.945551423     18.622690000     19.072841333 1
    18.406969423     17.440038000     14.445595333 1
    19.359123423     18.400912000     14.757303333 1
    20.421774423     18.553293000     13.880790333 1
    20.534854423     17.768094000     12.731201333 1
    19.582543423     16.808191000     12.415531333 1
    18.512041423     16.653383000     13.291054333 1
    12.641368423     14.246345000     16.703662333 1
    16.068564423     14.033788000     12.358242333 1
    11.487958423     13.346617000     16.708946333 1
    14.253196423     12.913253000     13.013522333 1
    12.796521423     13.003032000     14.860490333 1
    15.765549423     13.073399000     11.303090333 1
    11.593030423     12.559962000     15.554404333 1
    10.417456423     13.191809000     17.584468333 1
    14.626502423     12.370213000     11.715674333 1
    16.361772423     12.799695000     10.073428333 1
    10.640877423     11.599088000     15.242696333 1
     9.465145423     12.231906000     17.268798333 1
    14.054448423     11.377310000     10.927158333 1
    15.786481423     11.813586000      9.287554333 1
     9.578225423     11.446707000     16.119209333 1
    14.651996423     11.110886000      9.702945333 1
    12.866217423     16.727948000     20.215462333 2
    13.826343423     18.390270000     21.555724333 2
    15.715646423     19.559508000     20.860985333 2
    16.715004423     19.099754000     18.784891333 2
    19.285093423     18.933406000     15.540618333 2
    21.087416423     19.205120000     14.065998333 2
    21.278422423     17.893731000     12.153303333 2
    19.658950423     16.276977000     11.631489333 2
    10.341049423     13.723023000     18.368510333 2
    17.133782423     13.272052000      9.784537333 2
    10.714906423     11.066594000     14.459381333 2
     8.721577423     12.106269000     17.846696333 2
    13.284995423     10.900246000     11.215108333 2
    16.173656423     11.609730000      8.444275333 2
     8.912583423     10.794880000     15.934001333 2
    14.284353423     10.440492000      9.139014333 2
    14.876491423     16.093844000     16.645712333 3
    16.796955423     17.529817000     16.293555333 3
    16.619630423     15.989506000     14.426609333 3
    12.891560423     15.131513000     17.670486333 3
    17.108439423     14.868487000     12.329514333 3
    15.123508423     13.906156000     13.354287333 3
    13.380369423     14.010494000     15.573391333 3
    13.203044423     12.470183000     13.706444333 3
    15.000000423     15.000000000     15.000000333 4
%endblock AtomicCoordinatesAndAtomicSpecies

%block DM.InitSpin
%endblock DM.InitSpin

DM.UseSaveDM	True

Siesta2Wannier90.NumberOfBands   128
