&CONTROL
   calculation      = 'nscf'
   verbosity        = 'high'
   restart_mode     = 'from_scratch'
   wf_collect       = .true.
   outdir           = './outdir'
   pseudo_dir       = './pseudo'
/
&SYSTEM
   nbnd             = 1665
   ecutwfc          = 77.0
   ecutrho          = 539.0
   occupations      = 'tetrahedra'
   assume_isolated  = 'esm'
   esm_bc           = 'bc1'
   vdw_corr         = 'dft-d3'
   dftd3_version    = 4
   ntyp             = 3
   nat              = 193
   ibrav            = 0
/
&ELECTRONS
   electron_maxstep = 1000
   conv_thr         = 1e-06
   mixing_beta      = 0.2
   diagonalization  = 'david'
/
&IONS
/
&CELL
/

ATOMIC_SPECIES
Mo 95.95 Mo.pbe-spn-kjpaw_psl.1.0.0.UPF
S 32.06 S.pbe-n-kjpaw_psl.1.0.0.UPF
H 1.008 H.pbe-kjpaw_psl.1.0.0.UPF

K_POINTS automatic
2 2 1  0 0 0

CELL_PARAMETERS angstrom
12.60495876880469 0.00000000000000 0.00000000000000
-6.30246677944357 10.91622202271285 0.00000000000000
0.00000000000000 0.00000000000000 36.46614571815195

ATOMIC_POSITIONS angstrom
Mo 0.0000119917 1.8193638619 -9.1672481230 
Mo 1.5756136568 0.9097075315 -3.0554901653 
S 0.0000188998 1.8193822938 -4.6232556019 
S 1.5756321638 0.9096773839 -7.6014065489 
S 1.5756326175 0.9096785128 -10.7330757790 
S 0.0000189190 1.8193860094 -1.4877129945 
Mo -0.0000090444 1.8144744114 3.0537534903 
Mo 1.5652671305 0.9027426073 9.1774792708 
S -0.0041487577 1.8094824154 7.5996819039 
S 1.5759535902 0.9050406922 4.6216407147 
S 1.5753435087 0.9049068526 1.4857679586 
S -0.0169820513 1.8116860060 10.7397924872 
Mo -1.5756053507 4.5484193819 -9.1672481230 
Mo 0.0000378379 3.6387394919 -3.0554952701 
S -1.5755913433 4.5484363582 -4.6232494962 
S 0.0000148214 3.6387329039 -7.6014065489 
S 0.0000152751 3.6387340328 -10.7330757790 
S -1.5755906502 4.5484413613 -1.4877305502 
Mo -1.5758602156 4.5436931461 3.0533401688 
Mo -0.0150967495 3.6297296401 9.1657852042 
S -1.5787117347 4.5432501695 7.5909252174 
S -0.0003239496 3.6338993491 4.6214372747 
S 0.0000801074 3.6339559629 1.4860022605 
S -1.5919549057 4.5428106309 10.7323107607 
Mo -3.1512226931 7.2774749019 -9.1672481230 
Mo -1.5755910988 6.3678216792 -3.0555115988 
S -3.1512162438 7.2774954350 -4.6232578178 
S -1.5756025210 6.3677884239 -7.6014065489 
S -1.5756020673 6.3677895528 -10.7330757790 
S -3.1512127704 7.2774877076 -1.4877200710 
Mo -3.1516828508 7.2729724787 3.0536740731 
Mo -1.5857031414 6.3604560508 9.1637527526 
S -3.1666599634 7.2719064221 7.6021046986 
S -1.5761680490 6.3630619608 4.6211621117 
S -1.5759156604 6.3633427181 1.4858356665 
S -3.1614416249 7.2651548654 10.7357415412 
Mo -4.7268400355 10.0065304219 -9.1672481230 
Mo -3.1512405618 9.0968403586 -3.0554816746 
S -4.7268341792 10.0065523623 -4.6232463762 
S -3.1512198634 9.0968439439 -7.6014065489 
S -3.1512194097 9.0968450728 -10.7330757790 
S -4.7268370797 10.0065537885 -1.4877176751 
Mo -4.7270552716 10.0018514531 3.0538079139 
Mo -3.1587320696 9.0898649627 9.1719694207 
S -4.7366032056 9.9988020919 7.6085202420 
S -3.1515411820 9.0923387165 4.6216373098 
S -3.1515381315 9.0923078709 1.4858470750 
S -4.7347088466 9.9971102317 10.7424790407 
Mo 3.1512517547 1.8193638619 -9.1672481230 
Mo 4.7269020221 0.9097289540 -3.0554823951 
S 3.1512612351 1.8193882564 -4.6232320683 
S 4.7268719268 0.9096773839 -7.6014065489 
S 4.7268723805 0.9096785128 -10.7330757790 
S 3.1512592485 1.8193890201 -1.4877261251 
Mo 3.1509340044 1.8149398259 3.0529187190 
Mo 4.7266249286 0.9117451642 9.1729754728 
S 3.1427491592 1.8183720280 7.6177717895 
S 4.7257852024 0.9051611534 4.6211505230 
S 4.7269050407 0.9051636226 1.4857973331 
S 3.1427416548 1.7975070345 10.7529704598 
Mo 1.5756344123 4.5484193819 -9.1672481230 
Mo 3.1512756394 3.6387769522 -3.0554814834 
S 1.5756504879 4.5484423799 -4.6232390542 
S 3.1512545844 3.6387329039 -7.6014065489 
S 3.1512550381 3.6387340328 -10.7330757790 
S 1.5756466253 4.5484431864 -1.4877251801 
Mo 1.5756095489 4.5436656361 3.0539546125 
Mo 3.1342577446 3.6364565648 9.2050525825 
S 1.5767106383 4.5332627536 7.6087714056 
S 3.1513989543 3.6337175137 4.6212112925 
S 3.1508488607 3.6345703087 1.4851824929 
S 1.5428156931 4.5458980777 10.7459805775 
Mo 0.0000170699 7.2774749019 -9.1672481230 
Mo 1.5756764447 6.3678236689 -3.0554877708 
S 0.0000381981 7.2774979204 -4.6232454413 
S 1.5756372420 6.3677884239 -7.6014065489 
S 1.5756376957 6.3677895528 -10.7330757790 
S 0.0000328088 7.2774946042 -1.4877307940 
Mo -0.0003243310 7.2727925837 3.0535393989 
Mo 1.5606688015 6.3603358177 9.1704075987 
S -0.0080429117 7.2701156354 7.5971725141 
S 1.5749088099 6.3628849709 4.6220845218 
S 1.5756547771 6.3631181874 1.4862679871 
S -0.0154092963 7.2733874050 10.7355181003 
Mo -1.5756002725 10.0065304219 -9.1672481230 
Mo 0.0000873425 9.0968676911 -3.0554912329 
S -1.5755883952 10.0065504530 -4.6232240150 
S 0.0000198996 9.0968439439 -7.6014065489 
S 0.0000203533 9.0968450728 -10.7330757790 
S -1.5755859047 10.0065492576 -1.4877362381 
Mo -1.5759845497 10.0019606902 3.0535532097 
Mo -0.0071288959 9.0908371821 9.1653044161 
S -1.5862203615 10.0064320301 7.6044773895 
S -0.0006001035 9.0921483549 4.6213122414 
S -0.0001234162 9.0922224238 1.4858610209 
S -1.5783773016 10.0034173352 10.7373852772 
Mo 6.3024915177 1.8193638619 -9.1672481230 
Mo 7.8781001445 0.9096521684 -3.0554919963 
S 6.3025008696 1.8193826232 -4.6232480596 
S 7.8781116898 0.9096773839 -7.6014065489 
S 7.8781121435 0.9096785128 -10.7330757790 
S 6.3025042007 1.8193849068 -1.4877147524 
Mo 6.3021335396 1.8147606741 3.0540347358 
Mo 7.8739071168 0.8973072942 9.1582858231 
S 6.3027274770 1.8031985172 7.5810540410 
S 7.8783257464 0.9049556949 4.6209305703 
S 7.8776658039 0.9049466670 1.4858387080 
S 6.3071209736 1.8234043692 10.7274142461 
Mo 4.7268741753 4.5484193819 -9.1672481230 
Mo 6.3024679138 3.6387501714 -3.0554895197 
S 4.7268748770 4.5484386753 -4.6232519432 
S 6.3024943474 3.6387329039 -7.6014065489 
S 6.3024948011 3.6387340328 -10.7330757790 
S 4.7268770533 4.5484432419 -1.4877137856 
Mo 4.7262842412 4.5438513141 3.0533442060 
Mo 6.3184682996 3.6168727117 9.1215293248 
S 4.7077278218 4.5394936388 7.6321820801 
S 6.3015342944 3.6344054160 4.6222079140 
S 6.3022196016 3.6340017654 1.4861285512 
S 4.6128008991 4.6006234059 10.8732000737 
Mo 3.1512568329 7.2774749019 -9.1672481230 
Mo 4.7268384135 6.3678043337 -3.0554959052 
S 3.1512606125 7.2774972547 -4.6232589675 
S 4.7268770050 6.3677884239 -7.6014065489 
S 4.7268774587 6.3677895528 -10.7330757790 
S 3.1512629079 7.2774963749 -1.4877081835 
Mo 3.1510977596 7.2723380248 3.0544637748 
Mo 4.7053554114 6.3595361808 9.2021173331 
S 3.1483727596 7.2614279704 7.6092899070 
S 4.7268761340 6.3622779658 4.6218945846 
S 4.7262123884 6.3632747364 1.4857235388 
S 3.1227035094 7.2824054857 10.7455294646 
Mo 1.5756394905 10.0065304219 -9.1672481230 
Mo 3.1512330605 9.0968514907 -3.0554878870 
S 1.5756499830 10.0065443759 -4.6232632674 
S 3.1512596626 9.0968439439 -7.6014065489 
S 3.1512601163 9.0968450728 -10.7330757790 
S 1.5756503041 10.0065459699 -1.4877044377 
Mo 1.5753618140 10.0017328729 3.0537701748 
Mo 3.1401190892 9.0922127296 9.1666082041 
S 1.5700212582 9.9935025730 7.5926423242 
S 3.1510258735 9.0919125695 4.6218966938 
S 3.1511826564 9.0918105096 1.4865878490 
S 1.5651368255 10.0034923030 10.7345534614 
Mo 9.4537312807 1.8193638619 -9.1672481230 
Mo 11.0293863460 0.9096952246 -3.0554894007 
S 9.4537395970 1.8193770750 -4.6232328036 
S 11.0293514528 0.9096773839 -7.6014065489 
S 11.0293519066 0.9096785128 -10.7330757790 
S 9.4537393632 1.8193794783 -1.4877366147 
Mo 9.4537540601 1.8143248378 3.0531593594 
Mo 11.0223673987 0.9001097072 9.1644800263 
S 9.4506584610 1.8087739826 7.5920328167 
S 11.0292419850 0.9048401838 4.6213828076 
S 11.0295097916 0.9046188153 1.4857952855 
S 9.4460278454 1.8141667799 10.7256618365 
Mo 7.8781139383 4.5484193819 -9.1672481230 
Mo 9.4537539161 3.6387607911 -3.0554933032 
S 7.8781175448 4.5484378232 -4.6232366318 
S 9.4537341104 3.6387329039 -7.6014065489 
S 9.4537345641 3.6387340328 -10.7330757790 
S 7.8781194018 4.5484411585 -1.4877377057 
Mo 7.8776583144 4.5437507023 3.0539013285 
Mo 9.4502009608 3.6325995903 9.1556346877 
S 7.8782547130 4.5411589914 7.5793841877 
S 9.4536554663 3.6334541101 4.6206223104 
S 9.4533002590 3.6339499121 1.4857224323 
S 7.8659992946 4.5293369173 10.7242741708 
Mo 6.3024965959 7.2774749019 -9.1672481230 
Mo 7.8781361655 6.3678242352 -3.0555014130 
S 6.3024973331 7.2774953556 -4.6232392528 
S 7.8781167680 6.3677884239 -7.6014065489 
S 7.8781172217 6.3677895528 -10.7330757790 
S 6.3024989866 7.2774929744 -1.4877349119 
Mo 6.3018894547 7.2726941084 3.0534516457 
Mo 7.8637803103 6.3517455365 9.1694730906 
S 6.2822810727 7.2635425625 7.6141494680 
S 7.8773506812 6.3634898711 4.6212654333 
S 7.8776960374 6.3631615206 1.4859920816 
S 6.3022265589 7.2749272079 10.7493274796 
Mo 4.7268792535 10.0065304219 -9.1672481230 
Mo 6.3025111524 9.0968738021 -3.0554915260 
S 4.7268840634 10.0065452125 -4.6232380477 
S 6.3024994256 9.0968439439 -7.6014065489 
S 6.3024998793 9.0968450728 -10.7330757790 
S 4.7268847312 10.0065459141 -1.4877283294 
Mo 4.7268780291 10.0016188846 3.0540550715 
Mo 6.2910472332 9.0877744585 9.1758395929 
S 4.7214097427 9.9936549955 7.5999812627 
S 6.3025396448 9.0916804555 4.6218759942 
S 6.3022460987 9.0922022983 1.4859971365 
S 4.7137625762 10.0025956332 10.7392884640 
H 3.7207733363 5.1170350701 11.8459295951 

