&CONTROL
   calculation      = 'relax'
   restart_mode     = 'from_scratch'
   wf_collect       = .true.
   nstep            = 1000
   tstress          = .false.
   tprnfor          = .true.
   outdir           = './outdir'
   pseudo_dir       = './pseudo'
/
&SYSTEM
   ecutwfc          = 77.0
   ecutrho          = 539.0
   nosym            = .true.
   occupations      = 'smearing'
   degauss          = 0.01
   smearing         = 'gaussian'
   assume_isolated  = 'esm'
   esm_bc           = 'bc1'
   vdw_corr         = 'dft-d3'
   dftd3_version    = 4
   ntyp             = 3
   nat              = 148
   ibrav            = 0
/
&ELECTRONS
   electron_maxstep = 1000
   conv_thr         = 1e-06
   mixing_beta      = 0.2
   diagonalization  = 'david'
/
&IONS
/
&CELL
/

ATOMIC_SPECIES
Mo 95.95 Mo.pbe-spn-kjpaw_psl.1.0.0.UPF
S 32.06 S.pbe-n-kjpaw_psl.1.0.0.UPF
Pd 106.42 Pd.pbe-spn-kjpaw_psl.1.0.0.UPF

K_POINTS automatic
2 2 1  0 0 0

CELL_PARAMETERS angstrom
12.61532217525308 0.00000000000000 0.00000000000000
-6.30767370294872 10.92519700214573 0.00000000000000
0.00000000000000 0.00000000000000 30.30125956094956

ATOMIC_POSITIONS angstrom
Mo 1.5762305487 2.6922651455 6.0800106114 
Mo 1.5769197498 0.9104407117 -6.0872367793  0 0 0
Mo 0.0000415555 1.8208076853 -0.0015782049 
S 0.0000044503 0.0000077495 -7.6506323570  0 0 0
S 1.5768070918 0.9106432628 -1.5672602219 
S -0.0060023577 1.8124911470 4.5215951948 
S 0.0000053241 0.0000068460 -4.5222282367  0 0 0
S 1.5767821143 0.9098022763 1.5655523093 
S -0.0482186313 1.7816796831 7.6817283874 
Mo -0.0320647746 5.4794207894 6.0814350616 
Mo 0.0000011799 3.6417399547 -6.0872367793  0 0 0
Mo -1.5768386196 4.5518910206 -0.0015479749 
S -1.5769141197 2.7313069925 -7.6506323570  0 0 0
S 0.0003184628 3.6417542339 -1.5666571368 
S -1.5871890403 4.5504248129 4.5218293937 
S -1.5769132459 2.7313060890 -4.5222282367  0 0 0
S -0.0002326389 3.6414592376 1.5665594755 
S -1.6364435247 4.5278524782 7.6805738226 
Mo -1.5828843280 8.2042144521 6.0777946062 
Mo -1.5769173901 6.3730391977 -6.0872367793  0 0 0
Mo -3.1538355422 7.2830975278 -0.0024008053 
S -3.1538326896 5.4626062355 -7.6506323570  0 0 0
S -1.5765348702 6.3725417058 -1.5671209388 
S -3.1573149290 7.2830679350 4.5095986535 
S -3.1538318159 5.4626053320 -4.5222282367  0 0 0
S -1.5772389240 6.3728627949 1.5657034554 
S -3.1567461820 7.2827295565 7.6441118948 
Mo 3.1606573215 -0.0102472827 6.0776574473 
Mo -3.1538359601 9.1043384407 -6.0872367793  0 0 0
Mo -4.7308579750 10.0145389691 -0.0025002894 
S -4.7307512596 8.1939054785 -7.6506323570  0 0 0
S -3.1539721638 9.1039835630 -1.5680125794 
S -4.7314577950 10.0098308677 4.5091349006 
S -4.7307503859 8.1939045750 -4.5222282367  0 0 0
S -3.1540023044 9.1040074005 1.5643375322 
S -4.7315270013 10.0113877123 7.6428587570 
Mo 4.7421019740 2.7227766909 6.0858567365 
Mo 4.7307503218 0.9104407117 -6.0872367793  0 0 0
Mo 3.1535428225 1.8208133342 -0.0015612328 
S 3.1538350223 0.0000077495 -7.6506323570  0 0 0
S 4.7300276783 0.9105121234 -1.5677367642 
S 3.1583857227 1.8122930288 4.5215613417 
S 3.1538358961 0.0000068460 -4.5222282367  0 0 0
S 4.7307154287 0.9100598579 1.5645649927 
S 3.2007498208 1.7816717959 7.6816764727 
Mo 3.1844846625 5.4794037342 6.0815285885 
Mo 3.1538317519 3.6417399547 -6.0872367793  0 0 0
Mo 1.5767895565 4.5519398067 -0.0006820534 
S 1.5769164523 2.7313069925 -7.6506323570  0 0 0
S 3.1532648543 3.6417555553 -1.5666641826 
S 1.5762529474 4.5507477022 4.5504314987 
S 1.5769173261 2.7313060890 -4.5222282367  0 0 0
S 3.1537995931 3.6414714039 1.5665700541 
S 1.5761410397 4.5479630895 7.5860787512 
Mo 1.5761850166 8.2089216360 6.0866842580 
Mo 1.5769131819 6.3730391977 -6.0872367793  0 0 0
Mo 0.0000060707 7.2830106382 -0.0014141870 
S -0.0000021176 5.4626062355 -7.6506323570  0 0 0
S 1.5767867072 6.3723276149 -1.5665111713 
S -0.0042029800 7.2916996824 4.5226075540 
S -0.0000012439 5.4626053320 -4.5222282367  0 0 0
S 1.5767858912 6.3728070180 1.5667986156 
S -0.0107659323 7.3465973165 7.6807774959 
Mo 6.3070096258 -0.0013750623 6.0754934399 
Mo -0.0000053881 9.1043384407 -6.0872367793  0 0 0
Mo -1.5771229276 10.0145204846 -0.0026698783 
S -1.5769206876 8.1939054785 -7.6506323570  0 0 0
S -0.0002785895 9.1034240549 -1.5677137425 
S -1.5770951116 10.0138546438 4.5052545883 
S -1.5769198139 8.1939045750 -4.5222282367  0 0 0
S -0.0000532945 9.1044563679 1.5645122281 
S -1.5751585358 10.0160654039 7.6515493774 
Mo 7.8838659941 2.7286577954 6.0750139593 
Mo 7.8845808939 0.9104407117 -6.0872367793  0 0 0
Mo 6.3074850069 1.8205344336 -0.0027124405 
S 6.3076655943 0.0000077495 -7.6506323570  0 0 0
S 7.8844418462 0.9103077912 -1.5683740984 
S 6.3072924689 1.8184575449 4.5086751092 
S 6.3076664681 0.0000068460 -4.5222282367  0 0 0
S 7.8844594077 0.9100347825 1.5641940897 
S 6.3185376321 1.8122827553 7.6485389147 
Mo 6.3195664841 5.4587495492 6.0779326794 
Mo 6.3076623239 3.6417399547 -6.0872367793  0 0 0
Mo 4.7304149164 4.5518913035 -0.0015517908 
S 4.7307470244 2.7313069925 -7.6506323570  0 0 0
S 6.3070420540 3.6416377360 -1.5676889462 
S 4.7397316697 4.5504861484 4.5218230377 
S 4.7307478981 2.7313060890 -4.5222282367  0 0 0
S 6.3076756383 3.6412113610 1.5645958733 
S 4.7888737461 4.5277863511 7.6805495604 
Mo 4.7352442642 8.2042341415 6.0776273756 
Mo 4.7307437539 6.3730391977 -6.0872367793  0 0 0
Mo 3.1535678083 7.2830153775 -0.0014325422 
S 3.1538284544 5.4626062355 -7.6506323570  0 0 0
S 4.7301325129 6.3725447230 -1.5671257576 
S 3.1565121483 7.2916713872 4.5225807833 
S 3.1538293281 5.4626053320 -4.5222282367  0 0 0
S 4.7307973623 6.3728712117 1.5656832938 
S 3.1632094857 7.3466319651 7.6807269924 
Mo 9.4607041128 -0.0013593857 6.0755970016 
Mo 3.1538251839 9.1043384407 -6.0872367793  0 0 0
Mo 1.5767837605 10.0145277035 -0.0029452983 
S 1.5769098844 8.1939054785 -7.6506323570  0 0 0
S 3.1538606821 9.1034377259 -1.5677220835 
S 1.5762363156 10.0150696741 4.5087283708 
S 1.5769107581 8.1939045750 -4.5222282367  0 0 0
S 3.1536211114 9.1044575664 1.5644949614 
S 1.5761434025 10.0293886410 7.6506946966 
Mo -1.5896873696 2.7228019823 6.0860264492 
Mo 11.0384114659 0.9104407117 -6.0872367793  0 0 0
Mo 9.4614129276 1.8205364998 -0.0027521852 
S 9.4614961663 0.0000077495 -7.6506323570  0 0 0
S 11.0388926372 0.9105121511 -1.5677585281 
S 9.4604836980 1.8184479052 4.5088379842 
S 9.4614970401 0.0000068460 -4.5222282367  0 0 0
S 11.0381659437 0.9100760240 1.5645397467 
S 9.4490929715 1.8122922470 7.6486921411 
Mo -3.1670680619 5.4587765167 6.0779437186 
Mo 9.4614928959 3.6417399547 -6.0872367793  0 0 0
Mo 7.8844501598 4.5518036163 -0.0026188484 
S 7.8845775964 2.7313069925 -7.6506323570  0 0 0
S 9.4618682212 3.6416559354 -1.5676981344 
S 7.8839602172 4.5484465022 4.5052174692 
S 7.8845784701 2.7313060890 -4.5222282367  0 0 0
S 9.4612091087 3.6411936392 1.5645840832 
S 7.8839323951 4.5445745786 7.6519701849 
Mo -4.7315075795 8.1920171781 6.0772889588 
Mo 7.8845743259 6.3730391977 -6.0872367793  0 0 0
Mo 6.3074261518 7.2831070371 -0.0024024272 
S 6.3076590264 5.4626062355 -7.6506323570  0 0 0
S 7.8844598918 6.3727547529 -1.5679289385 
S 6.3097249867 7.2830151705 4.5095167540 
S 6.3076599001 5.4626053320 -4.5222282367  0 0 0
S 7.8844509965 6.3726936498 1.5643586124 
S 6.3089772812 7.2827326068 7.6440097326 
Mo -0.0082319953 -0.0101549197 6.0775952975 
Mo 6.3076557559 9.1043384407 -6.0872367793  0 0 0
Mo 4.7307036496 10.0145297739 -0.0026846953 
S 4.7307404564 8.1939054785 -7.6506323570  0 0 0
S 6.3075895379 9.1039989026 -1.5680104170 
S 4.7294414102 10.0140103855 4.5052202153 
S 4.7307413301 8.1939045750 -4.5222282367  0 0 0
S 6.3075890267 9.1040295111 1.5643288643 
S 4.7276300194 10.0160294063 7.6514591067 
Pd 3.0312895083 5.3971097577 9.1140574610 
Pd 0.1206129205 5.3971410650 9.1139626417 
Pd 1.5762871552 2.8796048654 9.1266984726 
Pd 4.7420000000 2.7230000000 9.1706666667 

