&CONTROL
   calculation      = 'scf'
   restart_mode     = 'from_scratch'
   wf_collect       = .true.
   tstress          = .false.
   tprnfor          = .true.
   outdir           = './outdir'
   pseudo_dir       = './pseudo'
/
&SYSTEM
   ecutwfc          = 77.0
   ecutrho          = 539.0
   nosym            = .true.
   occupations      = 'smearing'
   degauss          = 0.01
   smearing         = 'gaussian'
   assume_isolated  = 'esm'
   esm_bc           = 'bc1'
   vdw_corr         = 'dft-d3'
   dftd3_version    = 4
   ntyp             = 4
   nat              = 194
   ibrav            = 0
/
&ELECTRONS
   electron_maxstep = 1000
   conv_thr         = 1e-06
   mixing_beta      = 0.2
   diagonalization  = 'david'
/
&IONS
/
&CELL
/

ATOMIC_SPECIES
Mo 95.95 Mo.pbe-spn-kjpaw_psl.1.0.0.UPF
S 32.06 S.pbe-n-kjpaw_psl.1.0.0.UPF
Pd 106.42 Pd.pbe-spn-kjpaw_psl.1.0.0.UPF
H 1.008 H.pbe-kjpaw_psl.1.0.0.UPF

K_POINTS automatic
2 2 1  0 0 0

CELL_PARAMETERS angstrom
12.60495876880469 0.00000000000000 0.00000000000000
-6.30246677944357 10.91622202271285 0.00000000000000
0.00000000000000 0.00000000000000 36.46614571815195

ATOMIC_POSITIONS angstrom
Mo 0.0000119917 1.8193638619 -9.1672481230 
Mo 1.5756136568 0.9097075315 -3.0554901653 
S 0.0000188998 1.8193822938 -4.6232556019 
S 1.5756321638 0.9096773839 -7.6014065489 
S 1.5756326175 0.9096785128 -10.7330757790 
S 0.0000189190 1.8193860094 -1.4877129945 
Mo 0.0025146302 1.8208406971 3.0446571102 
Mo 1.6019367825 0.9226157986 9.1500115747 
S 0.0259360169 1.8347661133 7.5810485295 
S 1.5783642219 0.9117022617 4.6123826835 
S 1.5781186293 0.9109532372 1.4772888430 
S 0.0227524610 1.8166041803 10.7251951028 
Mo -1.5756053507 4.5484193819 -9.1672481230 
Mo 0.0000378379 3.6387394919 -3.0554952701 
S -1.5755913433 4.5484363582 -4.6232494962 
S 0.0000148214 3.6387329039 -7.6014065489 
S 0.0000152751 3.6387340328 -10.7330757790 
S -1.5755906502 4.5484413613 -1.4877305502 
Mo -1.5730027246 4.5499268597 3.0452284837 
Mo 0.0181299435 3.6397416610 9.1606944769 
S -1.5489477554 4.5638026847 7.5888070403 
S 0.0034809055 3.6406024390 4.6123791794 
S 0.0017079930 3.6398976849 1.4767309004 
S -1.5570734884 4.5591084628 10.7255786353 
Mo -3.1512226931 7.2774749019 -9.1672481230 
Mo -1.5755910988 6.3678216792 -3.0555115988 
S -3.1512162438 7.2774954350 -4.6232578178 
S -1.5756025210 6.3677884239 -7.6014065489 
S -1.5756020673 6.3677895528 -10.7330757790 
S -3.1512127704 7.2774877076 -1.4877200710 
Mo -3.1486940663 7.2789146626 3.0446594221 
Mo -1.5656662500 6.3829615586 9.1606945885 
S -3.1249059479 7.2922203149 7.5810502562 
S -1.5722537605 6.3698638747 4.6123810126 
S -1.5737535591 6.3686833202 1.4767320823 
S -3.1422290413 7.2985399738 10.7251980740 
Mo -4.7268400355 10.0065304219 -9.1672481230 
Mo -3.1512405618 9.0968403586 -3.0554816746 
S -4.7268341792 10.0065523623 -4.6232463762 
S -3.1512198634 9.0968439439 -7.6014065489 
S -3.1512194097 9.0968450728 -10.7330757790 
S -4.7268370797 10.0065537885 -1.4877176751 
Mo -4.7241573872 10.0080854180 3.0451375222 
Mo -3.1268535334 9.1131502500 9.1500160098 
S -4.7005670929 10.0216904669 7.5801657886 
S -3.1481056600 9.0982113885 4.6123846050 
S -3.1488766193 9.0983710565 1.4772914862 
S -4.7001967751 10.0219082418 10.7196873873 
Mo 3.1512517547 1.8193638619 -9.1672481230 
Mo 4.7269020221 0.9097289540 -3.0554823951 
S 3.1512612351 1.8193882564 -4.6232320683 
S 4.7268719268 0.9096773839 -7.6014065489 
S 4.7268723805 0.9096785128 -10.7330757790 
S 3.1512592485 1.8193890201 -1.4877261251 
Mo 3.1538301110 1.8209659007 3.0448634063 
Mo 4.7543027768 0.9255088795 9.1511591373 
S 3.1787049814 1.8379511657 7.5846687504 
S 4.7295309356 0.9112179160 4.6126522427 
S 4.7295448739 0.9112251990 1.4774374409 
S 3.1813106623 1.8173949330 10.7261722183 
Mo 1.5756344123 4.5484193819 -9.1672481230 
Mo 3.1512756394 3.6387769522 -3.0554814834 
S 1.5756504879 4.5484423799 -4.6232390542 
S 3.1512545844 3.6387329039 -7.6014065489 
S 3.1512550381 3.6387340328 -10.7330757790 
S 1.5756466253 4.5484431864 -1.4877251801 
Mo 1.5779800947 4.5501435485 3.0434756711 
Mo 3.1825473079 3.6430005909 9.1652706078 
S 1.6009853339 4.5858137566 7.6308502387 
S 3.1528628694 3.6408660471 4.6124512924 
S 3.1540076908 3.6398837416 1.4768250451 
S 1.5972956636 4.4631164920 10.7701932203 
Mo 0.0000170699 7.2774749019 -9.1672481230 
Mo 1.5756764447 6.3678236689 -3.0554877708 
S 0.0000381981 7.2774979204 -4.6232454413 
S 1.5756372420 6.3677884239 -7.6014065489 
S 1.5756376957 6.3677895528 -10.7330757790 
S 0.0000328088 7.2774946042 -1.4877307940 
Mo 0.0026795314 7.2786511381 3.0434765012 
Mo 1.5968401885 6.3800184133 9.2349782630 
S 0.0450880806 7.2807201000 7.6308542223 
S 1.5779139301 6.3691086358 4.6109339412 
S 1.5779053526 6.3691048535 1.4754283331 
S -0.0630034706 7.3388600036 10.7701848487 
Mo -1.5756002725 10.0065304219 -9.1672481230 
Mo 0.0000873425 9.0968676911 -3.0554912329 
S -1.5755883952 10.0065504530 -4.6232240150 
S 0.0000198996 9.0968439439 -7.6014065489 
S 0.0000203533 9.0968450728 -10.7330757790 
S -1.5755859047 10.0065492576 -1.4877362381 
Mo -1.5729261345 10.0079691857 3.0448646891 
Mo 0.0193689188 9.1218013770 9.1652814015 
S -1.5457619246 10.0209984260 7.5846744599 
S 0.0026667887 9.0971787881 4.6124517742 
S 0.0023853172 9.0986614829 1.4768246407 
S -1.5622669758 10.0335395086 10.7261793883 
Mo 6.3024915177 1.8193638619 -9.1672481230 
Mo 7.8781001445 0.9096521684 -3.0554919963 
S 6.3025008696 1.8193826232 -4.6232480596 
S 7.8781116898 0.9096773839 -7.6014065489 
S 7.8781121435 0.9096785128 -10.7330757790 
S 6.3025042007 1.8193849068 -1.4877147524 
Mo 6.3050628040 1.8208536277 3.0453155047 
Mo 7.9040837576 0.9266047211 9.1547271802 
S 6.3311008223 1.8358729014 7.5839973365 
S 7.8806824376 0.9106355072 4.6128046936 
S 7.8805497332 0.9110434338 1.4777255160 
S 6.3296042797 1.8350134013 10.7244496436 
Mo 4.7268741753 4.5484193819 -9.1672481230 
Mo 6.3024679138 3.6387501714 -3.0554895197 
S 4.7268748770 4.5484386753 -4.6232519432 
S 6.3024943474 3.6387329039 -7.6014065489 
S 6.3024948011 3.6387340328 -10.7330757790 
S 4.7268770533 4.5484432419 -1.4877137856 
Mo 4.7290575526 4.5500568650 3.0452037784 
Mo 6.3301464314 3.6527558064 9.1547230259 
S 4.7508938541 4.5646711674 7.5923521222 
S 6.3046049420 3.6404904168 4.6128057685 
S 6.3048924009 3.6401736345 1.4777270256 
S 4.7605420302 4.5587499739 10.7295076531 
Mo 3.1512568329 7.2774749019 -9.1672481230 
Mo 4.7268384135 6.3678043337 -3.0554959052 
S 3.1512606125 7.2774972547 -4.6232589675 
S 4.7268770050 6.3677884239 -7.6014065489 
S 4.7268774587 6.3677895528 -10.7330757790 
S 3.1512629079 7.2774963749 -1.4877081835 
Mo 3.1532567993 7.2786350274 3.0439278825 
Mo 4.7672338914 6.3815732968 9.1639394679 
S 3.1539597207 7.2790279613 7.6326753758 
S 4.7285381787 6.3698237905 4.6128508430 
S 4.7293112052 6.3689336640 1.4770844885 
S 3.2527297076 7.3360435501 10.7594596199 
Mo 1.5756394905 10.0065304219 -9.1672481230 
Mo 3.1512330605 9.0968514907 -3.0554878870 
S 1.5756499830 10.0065443759 -4.6232632674 
S 3.1512596626 9.0968439439 -7.6014065489 
S 3.1512601163 9.0968450728 -10.7330757790 
S 1.5756503041 10.0065459699 -1.4877044377 
Mo 1.5781445139 10.0076088725 3.0452019803 
Mo 3.1833811229 9.1248843519 9.1639495878 
S 1.6017303263 10.0191924898 7.5923605556 
S 3.1538454055 9.0972739597 4.6128507193 
S 3.1534599037 9.0983871715 1.4770826359 
S 1.6014288192 10.0305118305 10.7295163024 
Mo 9.4537312807 1.8193638619 -9.1672481230 
Mo 11.0293863460 0.9096952246 -3.0554894007 
S 9.4537395970 1.8193770750 -4.6232328036 
S 11.0293514528 0.9096773839 -7.6014065489 
S 11.0293519066 0.9096785128 -10.7330757790 
S 9.4537393632 1.8193794783 -1.4877366147 
Mo 9.4561881991 1.8207047164 3.0455278136 
Mo 11.0565574637 0.9233165525 9.1491363393 
S 9.4782542562 1.8330700107 7.5831468970 
S 11.0322832457 0.9109536279 4.6124424055 
S 11.0312719046 0.9110387579 1.4773319033 
S 9.4818079199 1.8347760603 10.7207043931 
Mo 7.8781139383 4.5484193819 -9.1672481230 
Mo 9.4537539161 3.6387607911 -3.0554933032 
S 7.8781175448 4.5484378232 -4.6232366318 
S 9.4537341104 3.6387329039 -7.6014065489 
S 9.4537345641 3.6387340328 -10.7330757790 
S 7.8781194018 4.5484411585 -1.4877377057 
Mo 7.8805007751 4.5498870350 3.0455292464 
Mo 9.4777674172 3.6526037355 9.1518166671 
S 7.9022556396 4.5627994073 7.5831454769 
S 9.4566533458 3.6404238401 4.6130491182 
S 9.4558234374 3.6399481114 1.4780864941 
S 7.9055061199 4.5650226999 10.7207009857 
Mo 6.3024965959 7.2774749019 -9.1672481230 
Mo 7.8781361655 6.3678242352 -3.0555014130 
S 6.3024973331 7.2774953556 -4.6232392528 
S 7.8781167680 6.3677884239 -7.6014065489 
S 7.8781172217 6.3677895528 -10.7330757790 
S 6.3024989866 7.2774929744 -1.4877349119 
Mo 6.3047864834 7.2789136792 3.0448272924 
Mo 7.9035427285 6.3845278839 9.1491347716 
S 6.3249100723 7.2914347773 7.5832111232 
S 7.8806854031 6.3697036005 4.6124436702 
S 7.8802535231 6.3687850700 1.4773353823 
S 6.3459290129 7.2994378959 10.7264381374 
Mo 4.7268792535 10.0065304219 -9.1672481230 
Mo 6.3025111524 9.0968738021 -3.0554915260 
S 4.7268840634 10.0065452125 -4.6232380477 
S 6.3024994256 9.0968439439 -7.6014065489 
S 6.3024998793 9.0968450728 -10.7330757790 
S 4.7268847312 10.0065459141 -1.4877283294 
Mo 4.7292615704 10.0078025626 3.0448258353 
Mo 6.3303212298 9.1129018355 9.1504466643 
S 4.7501739173 10.0189473551 7.5832153447 
S 6.3049768099 9.0982848747 4.6122183701 
S 6.3050862494 9.0983462772 1.4773048874 
S 4.7676218875 10.0331507745 10.7264427250 
Pd 1.6269390965 6.3974276650 12.1568234658 
H 1.8189960798 6.5086964598 13.7361701341 

