&CONTROL
   calculation      = 'relax'
   restart_mode     = 'from_scratch'
   wf_collect       = .true.
   nstep            = 1000
   tstress          = .false.
   tprnfor          = .true.
   outdir           = './outdir'
   pseudo_dir       = './pseudo'
/
&SYSTEM
   ecutwfc          = 77.0
   ecutrho          = 539.0
   nosym            = .true.
   occupations      = 'smearing'
   degauss          = 0.01
   smearing         = 'gaussian'
   assume_isolated  = 'esm'
   esm_bc           = 'bc1'
   vdw_corr         = 'dft-d3'
   dftd3_version    = 4
   ntyp             = 4
   nat              = 195
   ibrav            = 0
/
&ELECTRONS
   electron_maxstep = 1000
   conv_thr         = 1e-06
   mixing_beta      = 0.2
   diagonalization  = 'david'
/
&IONS
/
&CELL
/

ATOMIC_SPECIES
Mo 95.95 Mo.pbe-spn-kjpaw_psl.1.0.0.UPF
S 32.06 S.pbe-n-kjpaw_psl.1.0.0.UPF
Pt 195.084 Pt.pbe-spfn-kjpaw_psl.1.0.0.UPF
Pd 106.42 Pd.pbe-spn-kjpaw_psl.1.0.0.UPF

K_POINTS automatic
2 2 1  0 0 0

CELL_PARAMETERS angstrom
12.60495876880469 0.00000000000000 0.00000000000000
-6.30246677944357 10.91622202271285 0.00000000000000
0.00000000000000 0.00000000000000 36.46614571815195

ATOMIC_POSITIONS angstrom
Mo 0.0000119917 1.8193638619 -9.1672481230  0 0 0
Mo 1.5756136568 0.9097075315 -3.0554901653  0 0 0
S 0.0000188998 1.8193822938 -4.6232556019  0 0 0
S 1.5756321638 0.9096773839 -7.6014065489  0 0 0
S 1.5756326175 0.9096785128 -10.7330757790  0 0 0
S 0.0000189190 1.8193860094 -1.4877129945  0 0 0
Mo 0.0000062240 1.8193761449 3.0561489421 
Mo 1.5781170371 0.9025438255 9.1714022476 
S -0.0038205990 1.8338229528 7.6289141149 
S 1.5750629596 0.9095722739 4.6237609752 
S 1.5757305987 0.9094695511 1.4884652004 
S -0.0052402491 1.7431098470 10.7957502913 
Mo -1.5756053507 4.5484193819 -9.1672481230  0 0 0
Mo 0.0000378379 3.6387394919 -3.0554952701  0 0 0
S -1.5755913433 4.5484363582 -4.6232494962  0 0 0
S 0.0000148214 3.6387329039 -7.6014065489  0 0 0
S 0.0000152751 3.6387340328 -10.7330757790  0 0 0
S -1.5755906502 4.5484413613 -1.4877305502  0 0 0
Mo -1.5751440946 4.5481227690 3.0568980948 
Mo -0.0098331156 3.6210210324 9.2123564852 
S -1.5635166621 4.5429614762 7.6326401768 
S 0.0005180630 3.6384788690 4.6249649709 
S 0.0000439144 3.6387059044 1.4886000332 
S -1.6580791683 4.5869253065 10.7694879348 
Mo -3.1512226931 7.2774749019 -9.1672481230  0 0 0
Mo -1.5755910988 6.3678216792 -3.0555115988  0 0 0
S -3.1512162438 7.2774954350 -4.6232578178  0 0 0
S -1.5756025210 6.3677884239 -7.6014065489  0 0 0
S -1.5756020673 6.3677895528 -10.7330757790  0 0 0
S -3.1512127704 7.2774877076 -1.4877200710  0 0 0
Mo -3.1509708388 7.2770388968 3.0568858957 
Mo -1.6031072023 6.3789414076 9.1786047192 
S -3.1545895892 7.2794067342 7.5856452271 
S -1.5750440586 6.3672269207 4.6252460414 
S -1.5754490065 6.3674605435 1.4891479854 
S -3.1835438022 7.2926941717 10.7328609838 
Mo -4.7268400355 10.0065304219 -9.1672481230  0 0 0
Mo -3.1512405618 9.0968403586 -3.0554816746  0 0 0
S -4.7268341792 10.0065523623 -4.6232463762  0 0 0
S -3.1512198634 9.0968439439 -7.6014065489  0 0 0
S -3.1512194097 9.0968450728 -10.7330757790  0 0 0
S -4.7268370797 10.0065537885 -1.4877176751  0 0 0
Mo -4.7269135373 10.0062851481 3.0561172770 
Mo -3.1558015980 9.0992775832 9.1554948859 
S -4.7341051201 10.0102518575 7.5928375798 
S -3.1513237197 9.0967608371 4.6238927541 
S -3.1509788255 9.0962987194 1.4888042191 
S -4.7230264984 9.9983126526 10.7342478950 
Mo 3.1512517547 1.8193638619 -9.1672481230  0 0 0
Mo 4.7269020221 0.9097289540 -3.0554823951  0 0 0
S 3.1512612351 1.8193882564 -4.6232320683  0 0 0
S 4.7268719268 0.9096773839 -7.6014065489  0 0 0
S 4.7268723805 0.9096785128 -10.7330757790  0 0 0
S 3.1512592485 1.8193890201 -1.4877261251  0 0 0
Mo 3.1512815345 1.8190523801 3.0565522024 
Mo 4.7301309417 0.9031106061 9.1453950267 
S 3.1494046348 1.8041225508 7.5772954632 
S 4.7275102813 0.9093654321 4.6236466007 
S 4.7269594150 0.9090734643 1.4886164061 
S 3.1730608601 1.7995415867 10.7229202229 
Mo 1.5756344123 4.5484193819 -9.1672481230  0 0 0
Mo 3.1512756394 3.6387769522 -3.0554814834  0 0 0
S 1.5756504879 4.5484423799 -4.6232390542  0 0 0
S 3.1512545844 3.6387329039 -7.6014065489  0 0 0
S 3.1512550381 3.6387340328 -10.7330757790  0 0 0
S 1.5756466253 4.5484431864 -1.4877251801  0 0 0
Mo 1.5756135842 4.5482137809 3.0564986589 
Mo 3.1962450599 3.6127279994 9.1501339403 
S 1.5644091002 4.5602074214 7.6632520368 
S 3.1509270196 3.6386595496 4.6245942997 
S 3.1513626958 3.6383898053 1.4888011654 
S 1.6846568529 4.4407873727 10.7662895929 
Mo 0.0000170699 7.2774749019 -9.1672481230  0 0 0
Mo 1.5756764447 6.3678236689 -3.0554877708  0 0 0
S 0.0000381981 7.2774979204 -4.6232454413  0 0 0
S 1.5756372420 6.3677884239 -7.6014065489  0 0 0
S 1.5756376957 6.3677895528 -10.7330757790  0 0 0
S 0.0000328088 7.2774946042 -1.4877307940  0 0 0
Mo 0.0003476135 7.2767502008 3.0569254793 
Mo 1.5822631491 6.3773131654 9.2189664291 
S 0.0148937483 7.2663339726 7.6442143025 
S 1.5758999625 6.3670938550 4.6251889534 
S 1.5754681159 6.3673529888 1.4885831251 
S -0.1118856067 7.3492947707 10.7971938266 
Mo -1.5756002725 10.0065304219 -9.1672481230  0 0 0
Mo 0.0000873425 9.0968676911 -3.0554912329  0 0 0
S -1.5755883952 10.0065504530 -4.6232240150  0 0 0
S 0.0000198996 9.0968439439 -7.6014065489  0 0 0
S 0.0000203533 9.0968450728 -10.7330757790  0 0 0
S -1.5755859047 10.0065492576 -1.4877362381  0 0 0
Mo -1.5752398718 10.0059354434 3.0565852677 
Mo -0.0061704823 9.1146628629 9.1701736954 
S -1.5741669140 9.9989526663 7.5818361449 
S 0.0005106484 9.0958841295 4.6246433079 
S 0.0003053280 9.0961561961 1.4889600955 
S -1.5872087430 10.0206612897 10.7276609704 
Mo 6.3024915177 1.8193638619 -9.1672481230  0 0 0
Mo 7.8781001445 0.9096521684 -3.0554919963  0 0 0
S 6.3025008696 1.8193826232 -4.6232480596  0 0 0
S 7.8781116898 0.9096773839 -7.6014065489  0 0 0
S 7.8781121435 0.9096785128 -10.7330757790  0 0 0
S 6.3025042007 1.8193849068 -1.4877147524  0 0 0
Mo 6.3029263026 1.8188548461 3.0558746198 
Mo 7.8794276911 0.9085147057 9.1633487440 
S 6.3123262651 1.8141210642 7.5820224410 
S 7.8784888990 0.9091895553 4.6239347666 
S 7.8786157773 0.9090476920 1.4886114318 
S 6.3007802843 1.8188594849 10.7194825430 
Mo 4.7268741753 4.5484193819 -9.1672481230  0 0 0
Mo 6.3024679138 3.6387501714 -3.0554895197  0 0 0
S 4.7268748770 4.5484386753 -4.6232519432  0 0 0
S 6.3024943474 3.6387329039 -7.6014065489  0 0 0
S 6.3024948011 3.6387340328 -10.7330757790  0 0 0
S 4.7268770533 4.5484432419 -1.4877137856  0 0 0
Mo 4.7268441688 4.5481300638 3.0565934285 
Mo 6.3096341173 3.6378091916 9.1487920352 
S 4.7408209751 4.5568958025 7.5794615189 
S 6.3028343963 3.6380039173 4.6235006254 
S 6.3026790747 3.6385639846 1.4885551017 
S 4.7505458008 4.5386237185 10.7244252509 
Mo 3.1512568329 7.2774749019 -9.1672481230  0 0 0
Mo 4.7268384135 6.3678043337 -3.0554959052  0 0 0
S 3.1512606125 7.2774972547 -4.6232589675  0 0 0
S 4.7268770050 6.3677884239 -7.6014065489  0 0 0
S 4.7268774587 6.3677895528 -10.7330757790  0 0 0
S 3.1512629079 7.2774963749 -1.4877081835  0 0 0
Mo 3.1509311574 7.2769816207 3.0562090755 
Mo 4.7378142247 6.3672354951 9.1736100278 
S 3.1300408131 7.2706375795 7.6421200148 
S 4.7261840510 6.3678280364 4.6240133485 
S 4.7267883847 6.3673775664 1.4885485244 
S 3.2452178777 7.3342692743 10.8214041796 
Mo 1.5756394905 10.0065304219 -9.1672481230  0 0 0
Mo 3.1512330605 9.0968514907 -3.0554878870  0 0 0
S 1.5756499830 10.0065443759 -4.6232632674  0 0 0
S 3.1512596626 9.0968439439 -7.6014065489  0 0 0
S 3.1512601163 9.0968450728 -10.7330757790  0 0 0
S 1.5756503041 10.0065459699 -1.4877044377  0 0 0
Mo 1.5759080901 10.0059035018 3.0567098007 
Mo 3.1567329490 9.1069093551 9.1817330112 
S 1.5812030901 10.0026109359 7.5995984857 
S 3.1513009814 9.0958843692 4.6245604515 
S 3.1512673616 9.0965146899 1.4886724242 
S 1.5713670752 10.0135389130 10.7383364983 
Mo 9.4537312807 1.8193638619 -9.1672481230  0 0 0
Mo 11.0293863460 0.9096952246 -3.0554894007  0 0 0
S 9.4537395970 1.8193770750 -4.6232328036  0 0 0
S 11.0293514528 0.9096773839 -7.6014065489  0 0 0
S 11.0293519066 0.9096785128 -10.7330757790  0 0 0
S 9.4537393632 1.8193794783 -1.4877366147  0 0 0
Mo 9.4540835669 1.8190735519 3.0566221983 
Mo 11.0269630667 0.9017503574 9.1769396555 
S 9.4582407696 1.8159481473 7.5975163306 
S 11.0298046023 0.9095969601 4.6244344467 
S 11.0293416046 0.9093312507 1.4886474522 
S 9.4466412484 1.8202827485 10.7354176598 
Mo 7.8781139383 4.5484193819 -9.1672481230  0 0 0
Mo 9.4537539161 3.6387607911 -3.0554933032  0 0 0
S 7.8781175448 4.5484378232 -4.6232366318  0 0 0
S 9.4537341104 3.6387329039 -7.6014065489  0 0 0
S 9.4537345641 3.6387340328 -10.7330757790  0 0 0
S 7.8781194018 4.5484411585 -1.4877377057  0 0 0
Mo 7.8784799662 4.5480288143 3.0563995721 
Mo 9.4380765157 3.6370046847 9.1664894187 
S 7.8834402611 4.5490247754 7.5821014984 
S 9.4543315145 3.6384531859 4.6245040329 
S 9.4542042252 3.6384937973 1.4888591787 
S 7.8647755438 4.5515396800 10.7269623323 
Mo 6.3024965959 7.2774749019 -9.1672481230  0 0 0
Mo 7.8781361655 6.3678242352 -3.0555014130  0 0 0
S 6.3024973331 7.2774953556 -4.6232392528  0 0 0
S 7.8781167680 6.3677884239 -7.6014065489  0 0 0
S 7.8781172217 6.3677895528 -10.7330757790  0 0 0
S 6.3024989866 7.2774929744 -1.4877349119  0 0 0
Mo 6.3023020886 7.2771580799 3.0563350757 
Mo 7.8729185122 6.3701176174 9.1531687166 
S 6.2937421159 7.2814453172 7.5912279030 
S 7.8778766025 6.3673966164 4.6239882072 
S 7.8783571982 6.3675674789 1.4888312948 
S 6.3147899607 7.2776107189 10.7341271310 
Mo 4.7268792535 10.0065304219 -9.1672481230  0 0 0
Mo 6.3025111524 9.0968738021 -3.0554915260  0 0 0
S 4.7268840634 10.0065452125 -4.6232380477  0 0 0
S 6.3024994256 9.0968439439 -7.6014065489  0 0 0
S 6.3024998793 9.0968450728 -10.7330757790  0 0 0
S 4.7268847312 10.0065459141 -1.4877283294  0 0 0
Mo 4.7267978760 10.0062231419 3.0565672041 
Mo 6.3007135050 9.0974909962 9.1655263388 
S 4.7218588822 10.0080105049 7.6003647577 
S 6.3024109664 9.0966060703 4.6238270944 
S 6.3023415285 9.0965298260 1.4885210217 
S 4.7343660244 10.0066025710 10.7475477676 
Pt 1.5061637635 6.2905391350 12.0377271315 
Pd 0.0333005650 3.7691906230 12.1791691487 
Pd 3.1570000000 9.1070000000 12.3210000000 

