SystemName	siesta
SystemLabel	siesta

%block ExternalElectricField
0.0514220632 0.0 0.0 V/Ang
%endblock ExternalElectricField
MaxSCFIterations	2000
SCF.DM.Tolerance	1e-08
SCFMustConverge	False
SolutionMethod	diagon
WriteCoorCerius	True
WriteCoorStep	True
WriteCoorXmol	True
WriteForces	True
WriteMDHistory	True
WriteMDXmol	True
siesta2Wannier90.WriteAmn	True
siesta2Wannier90.WriteEig	True
siesta2Wannier90.WriteMmn	True
siesta2Wannier90.WriteUnk	False

Spin     	non-polarized
XC.functional	GGA
XC.authors	PBE

MeshCutoff	680.2846506091811	eV
PAO.EnergyShift	0.1	eV

NumberOfSpecies	2
NumberOfAtoms	60
%block ChemicalSpecieslabel
    1 1 H.gga.1
    2 8 O.gga.2
%endblock ChemicalSpecieslabel

%block PAO.BasisSizes
    H.gga.1	SZ
    O.gga.2	SZ
%endblock PAO.BasisSizes


LatticeConstant	1.0 Ang
%block LatticeVectors
    30.000000000000000     0.000000000000000     0.000000000000000 
    0.000000000000000     30.000000000000000     0.000000000000000 
    0.000000000000000     0.000000000000000     30.000000000000000 
%endblock LatticeVectors


AtomicCoordinatesFormat  Ang
%block AtomicCoordinatesAndAtomicSpecies
    13.006650137     17.737291429     14.635208046 1
    12.051850137     17.016291429     15.746408046 1
    12.751950137     17.716291429     15.602408046 2
    16.369050137     15.004291429     11.192608046 1
    14.766750137     15.317291429     11.154208046 1
    15.523050137     14.868291429     10.677908046 2
    14.207250137     14.676091429     15.849408046 1
    14.029650137     16.260291429     16.200408046 1
    14.692050137     15.534291429     16.018408046 2
    14.660150137     13.346191429     12.703108046 1
    13.299850137     14.025791429     12.107708046 1
    13.682050137     13.211491429     12.544508046 2
    15.536050137     15.327291429     17.641408046 1
    14.983050137     14.097891429     18.562408046 1
    15.625050137     14.863291429     18.522408046 2
    12.050850137     13.577891429     15.476408046 1
    13.072050137     13.291491429     14.234508046 1
    12.948350137     13.216191429     15.224408046 2
    13.566950137     16.839291429     12.497408046 1
    12.797950137     16.090291429     11.267208046 1
    13.426050137     15.964291429     12.035008046 2
    17.893050137     13.354191429     14.360108046 1
    19.006050137     12.176591429     14.562508046 1
    18.776050137     13.127191429     14.770908046 2
    13.721250137     11.905891429     15.952408046 1
    14.521950137     10.482991429     15.927408046 1
    14.044650137     11.141391429     16.509408046 2
    18.715050137     15.361291429     11.996108046 1
    17.746050137     15.865291429     13.209808046 1
    17.769050137     15.541291429     12.264008046 2
    11.026850137     15.121291429     17.303408046 1
    10.191650137     15.936291429     16.161408046 1
    11.105250137     15.689291429     16.484408046 2
    13.827850137     12.162291429     18.058408046 1
    13.932850137     12.595691429     19.629408046 1
    13.742850137     12.921791429     18.703408046 2
    19.297050137     15.710291429     16.588408046 1
    19.084050137     14.214191429     15.970408046 1
    19.456050137     14.734291429     16.738408046 2
    16.635050137     18.364291429     16.760408046 1
    17.087050137     19.720291429     15.971408046 1
    17.307050137     18.759291429     16.134408046 2
    13.275150137     18.933291429     12.211808046 1
    14.476550137     18.810291429     13.310808046 1
    13.586250137     18.451291429     13.030708046 2
    11.418450137     15.109291429     13.055308046 1
     9.860950137     15.337291429     12.620908046 1
    10.508350137     14.695891429     13.031808046 2
    17.553050137     17.069291429     15.230408046 1
    16.434050137     15.879291429     15.216408046 1
    17.238050137     16.250291429     14.750908046 2
    15.738050137     12.096691429     16.684408046 1
    16.869050137     11.832691429     17.833408046 1
    16.714050137     12.145991429     16.896408046 2
    16.782050137     13.933091429     12.788408046 1
    17.102050137     12.340191429     12.624108046 1
    16.543050137     13.015391429     13.105808046 2
    14.518750137     17.803291429     18.017408046 1
    14.094550137     18.152291429     16.479408046 1
    14.862750137     17.971291429     17.093408046 2
%endblock AtomicCoordinatesAndAtomicSpecies

%block DM.InitSpin
%endblock DM.InitSpin

DM.UseSaveDM	True

Siesta2Wannier90.NumberOfBands   80
