&CONTROL
   calculation      = 'relax'
   restart_mode     = 'from_scratch'
   wf_collect       = .true.
   nstep            = 9999
   tstress          = .false.
   tprnfor          = .true.
   outdir           = '/scratch/calc/outdir'
   pseudo_dir       = './pseudo'
/
&SYSTEM
   ecutwfc          = 36
   ecutrho          = 400
   nosym            = .true.
   occupations      = 'smearing'
   degauss          = 0.01
   smearing         = 'gaussian'
   vdw_corr         = 'dft-d3'
   dftd3_version    = 4
   ntyp             = 4
   nat              = 72
   ibrav            = 0
/
&ELECTRONS
   electron_maxstep = 9999
   conv_thr         = 1e-06
   mixing_beta      = 0.2
   diagonalization  = 'david'
/
&IONS
/
&CELL
/

ATOMIC_SPECIES
O 15.999 O.pbe-n-kjpaw_psl.1.0.0.UPF
N 14.007 N.pbe-n-kjpaw_psl.1.0.0.UPF
H 1.008 H.pbe-kjpaw_psl.1.0.0.UPF
C 12.011 C.pbe-n-kjpaw_psl.1.0.0.UPF

K_POINTS automatic
2 2 2  0 0 0

CELL_PARAMETERS angstrom
13.69700000000000 0.00000000000000 0.00000000000000
0.00000000000000 3.88100000000000 0.00000000000000
-2.42851964413089 0.00000000000000 13.18013263734741

ATOMIC_POSITIONS angstrom
O 4.1567616114 1.6377820000 1.9045291661 
O 2.9425017894 0.3027180000 8.4945954848 
O 7.1117187444 2.2432180000 11.2756034713 
O 8.3259785665 3.5782820000 4.6855371526 
N 2.7246958230 0.8809870000 11.2228829407 
N 3.9389556451 1.0595130000 4.6328166220 
N 8.5437845328 3.0000130000 1.9572496966 
N 7.3295247108 2.8214870000 8.5473160153 
H 2.9346468449 0.7319566000 10.4030786907 
H 4.1489066670 1.2085434000 3.8130123720 
H 8.3338335110 3.1490434000 2.7770539467 
H 7.1195736889 2.6724566000 9.3671202654 
C -0.0704017045 2.3984580000 13.0193350192 
C 1.1438581176 3.4230420000 6.4292687005 
C 11.3388820603 1.4825420000 0.1607976182 
C 10.1246222383 0.4579580000 6.7508639368 
H 2.1078337353 2.5862984000 0.7143631889 
H 0.8935739132 3.2352016000 7.3044295076 
H 9.1606466206 1.2947016000 12.4657694484 
H 10.3749064426 0.6457984000 5.8757031297 
C -0.9155183478 2.7787960000 12.0084188459 
C 0.2987414743 3.0427040000 5.4183525272 
C 12.1839987036 1.1022040000 1.1717137915 
C 10.9697388816 0.8382960000 7.7617801101 
H -1.7215427189 3.2057060000 12.1903046763 
H -0.5072828968 2.6157940000 5.6002383576 
H 12.9900230747 0.6752940000 0.9898279611 
H 11.7757632527 1.2652060000 7.5798942797 
C -0.5086619087 2.4916020000 10.6403210781 
C 0.7055979134 3.3298980000 4.0502547595 
C 11.7771422646 1.3893980000 2.5398115592 
C 10.5628824425 0.5511020000 9.1298778779 
H -1.0733294479 2.6899211000 9.9285939157 
H 0.1409303741 3.1315789000 3.3385275970 
H 12.3418098038 1.1910789000 3.2515387216 
H 11.1275499817 0.7494211000 9.8416050403 
C 0.7146740252 1.9249760000 10.4162588233 
C 1.9289338473 0.0155240000 3.8261925046 
C 10.5538063306 1.9560240000 2.7638738141 
C 9.3395465086 3.8654760000 9.3539401327 
H 0.9889716855 1.7965149000 9.5371439764 
H 2.2032315076 0.1439851000 2.9470776577 
H 10.2795086704 2.0844851000 3.6429886610 
H 9.0652488483 3.7370149000 10.2330549796 
C 1.5585764087 1.5407570000 11.4337650629 
C 2.7728362308 0.3997430000 4.8436987442 
C 9.7099039472 2.3402430000 1.7463675744 
C 8.4956441251 3.4812570000 8.3364338931 
C 1.1475234579 1.7386880000 12.8097709102 
C 2.3617832799 0.2018120000 6.2197045916 
C 10.1209568980 2.1423120000 0.3703617271 
C 8.9066970759 3.6791880000 6.9604280458 
C 3.5971091763 0.4230290000 12.1599903712 
C 4.8113689984 1.5174710000 5.5699240525 
C 7.6713711795 3.4579710000 1.0201422661 
C 6.4571113575 2.3635290000 7.6102085848 
C 5.6689461941 0.6985800000 0.3729977536 
C 4.4546863720 1.2419200000 6.9630640723 
C 5.5995341618 3.1824200000 12.8071348837 
C 6.8137939839 2.6390800000 6.2170685650 
C 4.4566651501 1.3622310000 0.6708687512 
C 3.2424053280 0.5782690000 7.2609350699 
C 6.8118152058 2.5187690000 12.5092638861 
C 8.0260750278 3.3027310000 5.9191975674 
C 6.5257391151 0.2095740000 1.2982430648 
C 5.3114792930 1.7309260000 7.8883093835 
C 4.7427412408 3.6714260000 11.8818895726 
C 5.9570010629 2.1500740000 5.2918232539 
H 6.3033152312 0.3260040000 2.1931740709 
H 5.0890554092 1.6144960000 8.7832403895 
H 4.9651651247 3.5549960000 10.9869585665 
H 6.1794249467 2.2665040000 4.3968922478 

