&CONTROL
   calculation      = 'relax'
   restart_mode     = 'from_scratch'
   wf_collect       = .true.
   nstep            = 1000
   tstress          = .false.
   tprnfor          = .true.
   outdir           = './outdir'
   pseudo_dir       = './pseudo'
/
&SYSTEM
   ecutwfc          = 77.0
   ecutrho          = 539.0
   nosym            = .true.
   occupations      = 'smearing'
   degauss          = 0.01
   smearing         = 'gaussian'
   assume_isolated  = 'esm'
   esm_bc           = 'bc1'
   vdw_corr         = 'dft-d3'
   dftd3_version    = 4
   ntyp             = 3
   nat              = 147
   ibrav            = 0
/
&ELECTRONS
   electron_maxstep = 1000
   conv_thr         = 1e-06
   mixing_beta      = 0.2
   diagonalization  = 'david'
/
&IONS
/
&CELL
/

ATOMIC_SPECIES
Mo 95.95 Mo.pbe-spn-kjpaw_psl.1.0.0.UPF
S 32.06 S.pbe-n-kjpaw_psl.1.0.0.UPF
Pt 195.084 Pt.pbe-spfn-kjpaw_psl.1.0.0.UPF

K_POINTS automatic
2 2 1  0 0 0

CELL_PARAMETERS angstrom
12.61532217525308 0.00000000000000 0.00000000000000
-6.30767370294872 10.92519700214573 0.00000000000000
0.00000000000000 0.00000000000000 30.30125956094956

ATOMIC_POSITIONS angstrom
Mo 1.5708016695 2.7067798717 6.1044073925 
Mo 1.5769197498 0.9104407117 -6.0872367793  0 0 0
Mo 0.0005359610 1.8197047672 0.0007806427 
S 0.0000044503 0.0000077495 -7.6506323570  0 0 0
S 1.5772799980 0.9100421219 -1.5654413215 
S 0.0054850629 1.7988724715 4.5280325848 
S 0.0000053241 0.0000068460 -4.5222282367  0 0 0
S 1.5776593651 0.9090166129 1.5670386339 
S -0.0048087679 1.8049630632 7.6729636086 
Mo -0.0094789246 5.4459150300 6.0934018393 
Mo 0.0000011799 3.6417399547 -6.0872367793  0 0 0
Mo -1.5763114341 4.5508947998 0.0001856766 
S -1.5769141197 2.7313069925 -7.6506323570  0 0 0
S 0.0008774954 3.6407104780 -1.5647642381 
S -1.5688672978 4.5279765424 4.5171851281 
S -1.5769132459 2.7313060890 -4.5222282367  0 0 0
S 0.0010222921 3.6405342225 1.5683176992 
S -1.5865626265 4.5348026466 7.6556937558 
Mo -1.5871735765 8.1797093119 6.0624500289 
Mo -1.5769173901 6.3730391977 -6.0872367793  0 0 0
Mo -3.1536823336 7.2824238171 -0.0005279626 
S -3.1538326896 5.4626062355 -7.6506323570  0 0 0
S -1.5761321516 6.3719723364 -1.5654942306 
S -3.1621877164 7.2653987286 4.5023155879 
S -3.1538318159 5.4626053320 -4.5222282367  0 0 0
S -1.5774718273 6.3714661022 1.5662796227 
S -3.1378557821 7.2665676989 7.6459248044 
Mo 3.1529636618 -0.0131360860 6.0829320660 
Mo -3.1538359601 9.1043384407 -6.0872367793  0 0 0
Mo -4.7303137404 10.0139383289 -0.0003274108 
S -4.7307512596 8.1939054785 -7.6506323570  0 0 0
S -3.1531251594 9.1036372894 -1.5659368797 
S -4.7357759045 10.0036907879 4.5211842007 
S -4.7307503859 8.1939045750 -4.5222282367  0 0 0
S -3.1534483330 9.1033507593 1.5663025191 
S -4.7188215459 9.9972876671 7.6580408048 
Mo 4.7369313124 2.6975494817 6.0860789209 
Mo 4.7307503218 0.9104407117 -6.0872367793  0 0 0
Mo 3.1540698858 1.8204532581 0.0003167966 
S 3.1538350223 0.0000077495 -7.6506323570  0 0 0
S 4.7312446988 0.9103904868 -1.5651301894 
S 3.1443663837 1.8094113430 4.5202259256 
S 3.1538358961 0.0000068460 -4.5222282367  0 0 0
S 4.7307334189 0.9097341273 1.5671892869 
S 3.1603732950 1.7986252648 7.6578057123 
Mo 3.1407346500 5.4288879403 6.1275346543 
Mo 3.1538317519 3.6417399547 -6.0872367793  0 0 0
Mo 1.5775793130 4.5513717185 0.0010590995 
S 1.5769164523 2.7313069925 -7.6506323570  0 0 0
S 3.1543585617 3.6415470366 -1.5647777998 
S 1.5917499826 4.5378410281 4.5584986401 
S 1.5769173261 2.7313060890 -4.5222282367  0 0 0
S 3.1543042916 3.6409334615 1.5685764563 
S 1.4956270181 4.4847569081 7.7437690848 
Mo 1.5167132232 8.2099867832 6.0587954929 
Mo 1.5769131819 6.3730391977 -6.0872367793  0 0 0
Mo 0.0004715193 7.2823148720 0.0008459761 
S -0.0000021176 5.4626062355 -7.6506323570  0 0 0
S 1.5776294466 6.3723965565 -1.5643492725 
S -0.0220672763 7.2552999337 4.4928126443 
S -0.0000012439 5.4626053320 -4.5222282367  0 0 0
S 1.5776619408 6.3718563136 1.5691019254 
S -0.0326561177 7.2800624995 7.6381414702 
Mo 6.3048694245 -0.0063149464 6.0630149505 
Mo -0.0000053881 9.1043384407 -6.0872367793  0 0 0
Mo -1.5763826312 10.0141393054 -0.0001569873 
S -1.5769206876 8.1939054785 -7.6506323570  0 0 0
S 0.0011503550 9.1035073556 -1.5646510630 
S -1.5868320617 10.0087483056 4.5014918585 
S -1.5769198139 8.1939045750 -4.5222282367  0 0 0
S -0.0001277493 9.1033816887 1.5677148173 
S -1.5739265628 10.0001258998 7.6363337976 
Mo 7.8908624882 2.7132360481 6.0758521363 
Mo 7.8845808939 0.9104407117 -6.0872367793  0 0 0
Mo 6.3078829785 1.8207134853 0.0006584649 
S 6.3076655943 0.0000077495 -7.6506323570  0 0 0
S 7.8849667766 0.9097200642 -1.5644348001 
S 6.3090144417 1.8149290463 4.5019981670 
S 6.3076664681 0.0000068460 -4.5222282367  0 0 0
S 7.8848081372 0.9103829312 1.5672923398 
S 6.3184843333 1.7934659650 7.6461607854 
Mo 6.3340608305 5.4312226531 6.1007594506 
Mo 6.3076623239 3.6417399547 -6.0872367793  0 0 0
Mo 4.7308673408 4.5519862053 0.0010762303 
S 4.7307470244 2.7313069925 -7.6506323570  0 0 0
S 6.3078250314 3.6415977086 -1.5644927658 
S 4.7192880963 4.5457621795 4.5594028697 
S 4.7307478981 2.7313060890 -4.5222282367  0 0 0
S 6.3071558480 3.6416353806 1.5684472168 
S 4.8269939938 4.4666867375 7.7052919109 
Mo 4.7362291148 8.1944056498 6.1261650974 
Mo 4.7307437539 6.3730391977 -6.0872367793  0 0 0
Mo 3.1543883565 7.2825924610 0.0015268386 
S 3.1538284544 5.4626062355 -7.6506323570  0 0 0
S 4.7307580838 6.3726134238 -1.5645969894 
S 3.1610267245 7.2591913766 4.5773956845 
S 3.1538293281 5.4626053320 -4.5222282367  0 0 0
S 4.7314511872 6.3725320700 1.5691006467 
S 3.0041794528 7.3494582815 7.6548392806 
Mo 9.4584002419 -0.0097628210 6.0928906956 
Mo 3.1538251839 9.1043384407 -6.0872367793  0 0 0
Mo 1.5775898650 10.0140110921 0.0014734896 
S 1.5769098844 8.1939054785 -7.6506323570  0 0 0
S 3.1541433589 9.1035167684 -1.5640568915 
S 1.5780067540 10.0207062814 4.4932957068 
S 1.5769107581 8.1939045750 -4.5222282367  0 0 0
S 3.1548444872 9.1028391214 1.5693585530 
S 1.5524735941 10.0171005066 7.6382792527 
Mo -1.5743512172 2.7112081164 6.0898772130 
Mo 11.0384114659 0.9104407117 -6.0872367793  0 0 0
Mo 9.4621666199 1.8198566146 0.0008316904 
S 9.4614961663 0.0000077495 -7.6506323570  0 0 0
S 11.0387993894 0.9092113875 -1.5645677320 
S 9.4708733687 1.7997294359 4.5162864216 
S 9.4614970401 0.0000068460 -4.5222282367  0 0 0
S 11.0392628823 0.9085743908 1.5685776454 
S 9.4563413910 1.8113052657 7.6568499578 
Mo -3.1481702723 5.4445549421 6.0750950486 
Mo 9.4614928959 3.6417399547 -6.0872367793  0 0 0
Mo 7.8847948035 4.5514180677 0.0010760070 
S 7.8845775964 2.7313069925 -7.6506323570  0 0 0
S 9.4616180571 3.6407160963 -1.5647298520 
S 7.8885455864 4.5352006114 4.5091244554 
S 7.8845784701 2.7313060890 -4.5222282367  0 0 0
S 9.4622690431 3.6406812002 1.5677801980 
S 7.9185275842 4.5198362081 7.6535797684 
Mo -4.7110552806 8.1829763995 6.0870514787 
Mo 7.8845743259 6.3730391977 -6.0872367793  0 0 0
Mo 6.3077967543 7.2827390058 0.0004934097 
S 6.3076590264 5.4626062355 -7.6506323570  0 0 0
S 7.8844920438 6.3718407395 -1.5651516895 
S 6.2956824296 7.2733398486 4.5606828335 
S 6.3076599001 5.4626053320 -4.5222282367  0 0 0
S 7.8843953996 6.3727497335 1.5676732808 
S 6.4147119795 7.2187922257 7.7036835397 
Mo 0.0049925317 -0.0101809307 6.1041320397 
Mo 6.3076557559 9.1043384407 -6.0872367793  0 0 0
Mo 4.7313744361 10.0135137821 0.0011421556 
S 4.7307404564 8.1939054785 -7.6506323570  0 0 0
S 6.3077987831 9.1035265126 -1.5651774275 
S 4.7371449439 9.9822501772 4.5566765057 
S 4.7307413301 8.1939045750 -4.5222282367  0 0 0
S 6.3087622128 9.1031303258 1.5681169874 
S 4.7348743516 10.0923983930 7.7433831714 
Pt 3.2508328418 5.5650860826 8.9848432997 
Pt 4.6747172715 8.0384451017 8.9811463526 
Pt 1.5170000000 8.2100000000 9.2380000000 

