&inputpp
 prefix='pwscf',
 outdir='./outdir'
 plot_num=0
/
&plot
 iflag=3
 output_format=6
 fileout='charge.cube'
/
