SystemName	siesta
SystemLabel	siesta

MD.NumCGsteps	2000
MD.TypeOfRun	CG
MD.UseSaveXV	True
MaxSCFIterations	2000
%block SCF.Mixer.broyden
method	broyden
weight	0.01
weight.linear	0.005
%endblock SCF.Mixer.broyden
%block SCF.Mixers
broyden
%endblock SCF.Mixers
SCFMustConverge	False
SolutionMethod	diagon
WriteCoorCerius	True
WriteCoorStep	True
WriteCoorXmol	True
WriteForces	True
WriteMDHistory	True
WriteMDXmol	True

Spin     	non-polarized
XC.functional	VDW
XC.authors	DRSLL

MeshCutoff	680.2846506091811	eV
PAO.EnergyShift	0.1	eV

NumberOfSpecies	4
NumberOfAtoms	57
%block ChemicalSpecieslabel
    1 35 Br.vdw.1
    2 6 C.vdw.2
    3 7 N.vdw.3
    4 30 Zn.vdw.4
%endblock ChemicalSpecieslabel

%block PAO.BasisSizes
    Br.vdw.1	DZP
    C.vdw.2	DZP
    N.vdw.3	DZP
    Zn.vdw.4	DZP
%endblock PAO.BasisSizes


LatticeConstant	1.0 Ang
%block LatticeVectors
    30.000000000000000     0.000000000000000     0.000000000000000 
    0.000000000000000     30.000000000000000     0.000000000000000 
    0.000000000000000     0.000000000000000     30.000000000000000 
%endblock LatticeVectors


AtomicCoordinatesFormat  Ang
%block AtomicCoordinatesAndAtomicSpecies
    10.719358000     18.888439144     15.527239000 1
    13.292858000     19.047329144     18.786533000 1
    10.366372000     16.290495144     11.658067000 1
     8.944624000     19.163590144     14.072787000 1
    14.276842000     19.515279144     20.821112000 1
    17.102702000     16.726957144     20.186443000 1
     8.767463000     17.876970144     12.178694000 1
    16.145989000     18.363328144     21.515282000 1
    12.897298000     13.273042144      9.813557000 1
    19.633628000     13.709505144     18.341933000 1
    13.854011000     11.636672144      8.484718000 1
    16.707142000     10.952671144     11.213467000 1
    19.280642000     11.111560144     14.472761000 1
    21.232537000     12.123029144     17.821306000 1
    15.723158000     10.484721144      9.178888000 1
    21.055376000     10.836410144     15.927213000 1
    12.797388000     16.985153144     15.141644000 2
    14.249235000     17.069442144     16.978550000 2
    11.600921000     17.415803144     14.446317000 2
    14.622335000     17.608118144     18.277310000 2
    11.504483000     16.642184144     13.291185000 2
    10.648357000     18.370594144     14.757040000 2
    12.648519000     15.748913144     13.302919000 2
    16.055212000     15.963027144     17.627269000 2
    14.051543000     18.587130144     19.065192000 2
    15.756747000     16.913459144     18.681746000 2
    10.441727000     16.804949144     12.428265000 2
     9.598589000     18.527062144     13.889328000 2
    14.638318000     18.857437144     20.272388000 2
    16.344808000     17.186188144     19.903982000 2
     9.493970000     17.753443144     12.745600000 2
    13.944788000     14.036973144     12.372731000 2
    17.351481000     14.251087144     16.697081000 2
    15.768515000     18.164232144     20.688889000 2
    14.243253000     13.086541144     11.318254000 2
    18.495517000     13.357816144     16.708815000 2
    13.655192000     12.813812144     10.096018000 2
    15.377665000     12.391882144     11.722690000 2
    15.750765000     12.930558144     13.021450000 2
    17.202612000     13.014847144     14.858356000 2
    18.399079000     12.584197144     15.553683000 2
    19.558273000     13.195051144     17.571735000 2
    14.231485000     11.835768144      9.311111000 2
    15.948457000     11.412870144     10.934808000 2
    19.351643000     11.629405144     15.242960000 2
    20.506030000     12.246557144     17.254400000 2
    15.361682000     11.142563144      9.727612000 2
    20.401411000     11.472938144     16.110672000 2
    13.200084000     17.508327144     16.294297000 3
    13.381687000     15.978528144     14.436896000 3
    15.119303000     16.088007144     16.637911000 3
    12.910418000     14.870175144     12.342155000 3
    17.089582000     15.129824144     17.657845000 3
    14.880697000     13.911993144     13.362089000 3
    16.618313000     14.021472144     15.563104000 3
    16.799916000     12.491673144     13.705703000 3
    15.000000000     15.000000144     15.000000000 4
%endblock AtomicCoordinatesAndAtomicSpecies

%block DM.InitSpin
%endblock DM.InitSpin

DM.UseSaveDM	True

#KPoint grid
%block kgrid_Monkhorst_Pack
     1       0       0  0.0
     0       1       0  0.0
     0       0       1  0.0
%endblock kgrid_Monkhorst_Pack

