&CONTROL
   calculation      = 'relax'
   restart_mode     = 'restart'
   wf_collect       = .true.
   nstep            = 1000
   tstress          = .false.
   tprnfor          = .true.
   outdir           = './outdir'
   pseudo_dir       = './pseudo'
/
&SYSTEM
   ecutwfc          = 77.0
   ecutrho          = 539.0
   nosym            = .true.
   occupations      = 'smearing'
   degauss          = 0.01
   smearing         = 'gaussian'
   assume_isolated  = 'esm'
   esm_bc           = 'bc1'
   vdw_corr         = 'dft-d3'
   dftd3_version    = 4
   ntyp             = 4
   nat              = 147
   ibrav            = 0
/
&ELECTRONS
   electron_maxstep = 1000
   conv_thr         = 1e-06
   mixing_beta      = 0.2
   diagonalization  = 'david'
/
&IONS
/
&CELL
/

ATOMIC_SPECIES
Mo 95.95 Mo.pbe-spn-kjpaw_psl.1.0.0.UPF
S 32.06 S.pbe-n-kjpaw_psl.1.0.0.UPF
Pt 195.084 Pt.pbe-spfn-kjpaw_psl.1.0.0.UPF
Pd 106.42 Pd.pbe-spn-kjpaw_psl.1.0.0.UPF

K_POINTS automatic
2 2 1  0 0 0

CELL_PARAMETERS angstrom
12.61532217525308 0.00000000000000 0.00000000000000
-6.30767370294872 10.92519700214573 0.00000000000000
0.00000000000000 0.00000000000000 30.30125956094956

ATOMIC_POSITIONS angstrom
Mo 1.5719625376 2.7213771018 6.0885897166 
Mo 1.5769197498 0.9104407117 -6.0872367793  0 0 0
Mo 0.0000857951 1.8210837083 -0.0005120985 
S 0.0000044503 0.0000077495 -7.6506323570  0 0 0
S 1.5767550875 0.9108651334 -1.5665147643 
S 0.0012274304 1.8300420428 4.5081088765 
S 0.0000053241 0.0000068460 -4.5222282367  0 0 0
S 1.5767223041 0.9095022539 1.5653098213 
S -0.0066871255 1.8099127000 7.6481644045 
Mo -0.0115503590 5.4628343102 6.0964303717 
Mo 0.0000011799 3.6417399547 -6.0872367793  0 0 0
Mo -1.5766998367 4.5522478660 0.0000335463 
S -1.5769141197 2.7313069925 -7.6506323570  0 0 0
S 0.0001609278 3.6419556593 -1.5655688389 
S -1.5754486345 4.5573877048 4.5167611674 
S -1.5769132459 2.7313060890 -4.5222282367  0 0 0
S 0.0009644301 3.6423682911 1.5674526047 
S -1.5809778962 4.5456612845 7.6614545928 
Mo -1.5765166927 8.1921245900 6.0781409051 
Mo -1.5769173901 6.3730391977 -6.0872367793  0 0 0
Mo -3.1538812128 7.2830861043 -0.0017776783 
S -3.1538326896 5.4626062355 -7.6506323570  0 0 0
S -1.5767927285 6.3721988984 -1.5667180877 
S -3.1532692302 7.2782917734 4.5145154525 
S -3.1538318159 5.4626053320 -4.5222282367  0 0 0
S -1.5768272289 6.3738387505 1.5656891487 
S -3.1511802478 7.2897045122 7.6494229174 
Mo 3.1510977768 -0.0065095023 6.0638197240 
Mo -3.1538359601 9.1043384407 -6.0872367793  0 0 0
Mo -4.7309825456 10.0144030181 -0.0019543893 
S -4.7307512596 8.1939054785 -7.6506323570  0 0 0
S -3.1539245077 9.1040356283 -1.5674702431 
S -4.7335636153 10.0103076159 4.4994257744 
S -4.7307503859 8.1939045750 -4.5222282367  0 0 0
S -3.1538260433 9.1039819420 1.5645525859 
S -4.7267335028 10.0277926656 7.6415302222 
Mo 4.7307885773 2.6790119561 6.0653024717 
Mo 4.7307503218 0.9104407117 -6.0872367793  0 0 0
Mo 3.1538069633 1.8209139349 -0.0005207648 
S 3.1538350223 0.0000077495 -7.6506323570  0 0 0
S 4.7310994922 0.9111181456 -1.5662167455 
S 3.1402471492 1.8132918764 4.4967705796 
S 3.1538358961 0.0000068460 -4.5222282367  0 0 0
S 4.7305900486 0.9094977815 1.5660444652 
S 3.1501997257 1.7952913594 7.6396138441 
Mo 3.1421912519 5.4611951887 6.1348023999 
Mo 3.1538317519 3.6417399547 -6.0872367793  0 0 0
Mo 1.5773171671 4.5522890739 -0.0001592315 
S 1.5769164523 2.7313069925 -7.6506323570  0 0 0
S 3.1541574350 3.6418558080 -1.5655354268 
S 1.5933679702 4.5669038911 4.5596305914 
S 1.5769173261 2.7313060890 -4.5222282367  0 0 0
S 3.1540428753 3.6419151832 1.5679629231 
S 1.4806531907 4.4993492663 7.7368384095 
Mo 1.5643776827 8.2081232788 6.0852481371 
Mo 1.5769131819 6.3730391977 -6.0872367793  0 0 0
Mo 0.0002415754 7.2831106850 -0.0015830698 
S -0.0000021176 5.4626062355 -7.6506323570  0 0 0
S 1.5773680013 6.3725018670 -1.5664138670 
S 0.0008791029 7.2767460090 4.5166854874 
S -0.0000012439 5.4626053320 -4.5222282367  0 0 0
S 1.5769892024 6.3732615576 1.5669096680 
S -0.0041675343 7.2903691912 7.6530583236 
Mo 6.3117694419 -0.0062126262 6.0601159457 
Mo -0.0000053881 9.1043384407 -6.0872367793  0 0 0
Mo -1.5768234763 10.0145810368 -0.0020881858 
S -1.5769206876 8.1939054785 -7.6506323570  0 0 0
S 0.0005269046 9.1041753686 -1.5670945575 
S -1.5775513813 10.0036359427 4.4993523670 
S -1.5769198139 8.1939045750 -4.5222282367  0 0 0
S -0.0002051092 9.1038209361 1.5650862223 
S -1.5756333144 10.0159466681 7.6342281906 
Mo 7.8896353067 2.7255153530 6.0857130839 
Mo 7.8845808939 0.9104407117 -6.0872367793  0 0 0
Mo 6.3078711378 1.8208591707 0.0001162054 
S 6.3076655943 0.0000077495 -7.6506323570  0 0 0
S 7.8848372170 0.9106596259 -1.5657444529 
S 6.3210847944 1.8150096109 4.4945400993 
S 6.3076664681 0.0000068460 -4.5222282367  0 0 0
S 7.8850980378 0.9094727401 1.5660770789 
S 6.3145654040 1.7920175278 7.6373062601 
Mo 6.3283161819 5.4621290355 6.1283501103 
Mo 6.3076623239 3.6417399547 -6.0872367793  0 0 0
Mo 4.7307798342 4.5521973804 0.0002955109 
S 4.7307470244 2.7313069925 -7.6506323570  0 0 0
S 6.3077186318 3.6416561962 -1.5650462103 
S 4.7256532950 4.5674686056 4.5810316096 
S 4.7307478981 2.7313060890 -4.5222282367  0 0 0
S 6.3071995824 3.6421078723 1.5682492383 
S 4.7699395248 4.4028882472 7.6822650596 
Mo 4.7349529137 8.2231813341 6.0938345188 
Mo 4.7307437539 6.3730391977 -6.0872367793  0 0 0
Mo 3.1540866230 7.2828091016 -0.0007001122 
S 3.1538284544 5.4626062355 -7.6506323570  0 0 0
S 4.7307563130 6.3722781094 -1.5660447672 
S 3.1562001110 7.2648864596 4.5621762935 
S 3.1538293281 5.4626053320 -4.5222282367  0 0 0
S 4.7307645275 6.3730572045 1.5676052976 
S 3.1475435371 7.4160179957 7.7120090077 
Mo 9.4617430240 0.0048161538 6.0699513987 
Mo 3.1538251839 9.1043384407 -6.0872367793  0 0 0
Mo 1.5773141436 10.0142466563 -0.0011035702 
S 1.5769098844 8.1939054785 -7.6506323570  0 0 0
S 3.1542830015 9.1038562799 -1.5661433569 
S 1.5826608547 10.0092841762 4.4988997261 
S 1.5769107581 8.1939045750 -4.5222282367  0 0 0
S 3.1539390273 9.1028897949 1.5666189689 
S 1.5704907214 10.0320794871 7.6422571859 
Mo -1.5765880480 2.7331225880 6.0796274540 
Mo 11.0384114659 0.9104407117 -6.0872367793  0 0 0
Mo 9.4616590316 1.8209410877 -0.0000918267 
S 9.4614961663 0.0000077495 -7.6506323570  0 0 0
S 11.0383516562 0.9104866302 -1.5656346430 
S 9.4617475500 1.8286191405 4.5094706742 
S 9.4614970401 0.0000068460 -4.5222282367  0 0 0
S 11.0387074703 0.9103261364 1.5666228643 
S 9.4667908838 1.8133038726 7.6482015641 
Mo -3.1456241280 5.4606372172 6.0910082890 
Mo 9.4614928959 3.6417399547 -6.0872367793  0 0 0
Mo 7.8843941041 4.5522104647 0.0003516401 
S 7.8845775964 2.7313069925 -7.6506323570  0 0 0
S 9.4614385997 3.6418158325 -1.5651561281 
S 7.8738690300 4.5626534941 4.5458225734 
S 7.8845784701 2.7313060890 -4.5222282367  0 0 0
S 9.4613172548 3.6422438331 1.5676529470 
S 7.9551831597 4.5176475831 7.7107508200 
Mo -4.7214960511 8.2065478370 6.0813377956 
Mo 7.8845743259 6.3730391977 -6.0872367793  0 0 0
Mo 6.3074735961 7.2828836428 -0.0007961858 
S 6.3076590264 5.4626062355 -7.6506323570  0 0 0
S 7.8842268053 6.3721744559 -1.5662740953 
S 6.3061254222 7.2701549532 4.5501486858 
S 6.3076599001 5.4626053320 -4.5222282367  0 0 0
S 7.8846958009 6.3735921117 1.5667162739 
S 6.3157436094 7.3751832010 7.6850428140 
Mo 0.0005172703 0.0052790866 6.0676790429 
Mo 6.3076557559 9.1043384407 -6.0872367793  0 0 0
Mo 4.7307907413 10.0143868014 -0.0003431613 
S 4.7307404564 8.1939054785 -7.6506323570  0 0 0
S 6.3070286683 9.1038244635 -1.5664814299 
S 4.7307529236 10.0178955141 4.5025560274 
S 4.7307413301 8.1939045750 -4.5222282367  0 0 0
S 6.3080566429 9.1033445376 1.5662116846 
S 4.7336835208 10.0505257935 7.6474737352 
Pt 3.2557560651 5.4855105633 8.9514457689 
Pd 6.1808501585 5.4985616533 9.0890497621 
Pt 6.1810000000 5.4990000000 11.4890000000 

