&CONTROL
   calculation      = 'nscf'
   verbosity        = 'high'
   restart_mode     = 'from_scratch'
   wf_collect       = .true.
   outdir           = './outdir'
   pseudo_dir       = './pseudo'
/
&SYSTEM
   nbnd             = 1683
   ecutwfc          = 77.0
   ecutrho          = 539.0
   occupations      = 'tetrahedra'
   assume_isolated  = 'esm'
   esm_bc           = 'bc1'
   vdw_corr         = 'dft-d3'
   dftd3_version    = 4
   ntyp             = 4
   nat              = 194
   ibrav            = 0
/
&ELECTRONS
   electron_maxstep = 1000
   conv_thr         = 1e-06
   mixing_beta      = 0.2
   diagonalization  = 'david'
/
&IONS
/
&CELL
/

ATOMIC_SPECIES
Mo 95.95 Mo.pbe-spn-kjpaw_psl.1.0.0.UPF
S 32.06 S.pbe-n-kjpaw_psl.1.0.0.UPF
Pd 106.42 Pd.pbe-spn-kjpaw_psl.1.0.0.UPF
H 1.008 H.pbe-kjpaw_psl.1.0.0.UPF

K_POINTS automatic
2 2 1  0 0 0

CELL_PARAMETERS angstrom
12.60495876880469 0.00000000000000 0.00000000000000
-6.30246677944357 10.91622202271285 0.00000000000000
0.00000000000000 0.00000000000000 36.46614571815195

ATOMIC_POSITIONS angstrom
Mo 0.0000119917 1.8193638619 -9.1672481230 
Mo 1.5756136568 0.9097075315 -3.0554901653 
S 0.0000188998 1.8193822938 -4.6232556019 
S 1.5756321638 0.9096773839 -7.6014065489 
S 1.5756326175 0.9096785128 -10.7330757790 
S 0.0000189190 1.8193860094 -1.4877129945 
Mo 0.0005720138 1.8193729481 3.0507822514 
Mo 1.5886200222 0.9012843815 9.1464639645 
S 0.0119054075 1.8131344579 7.5778905617 
S 1.5762818713 0.9098114480 4.6181538851 
S 1.5759757637 0.9095625427 1.4831245123 
S 0.0094484425 1.7961312905 10.7210858702 
Mo -1.5756053507 4.5484193819 -9.1672481230 
Mo 0.0000378379 3.6387394919 -3.0554952701 
S -1.5755913433 4.5484363582 -4.6232494962 
S 0.0000148214 3.6387329039 -7.6014065489 
S 0.0000152751 3.6387340328 -10.7330757790 
S -1.5755906502 4.5484413613 -1.4877305502 
Mo -1.5749027573 4.5484586568 3.0509023893 
Mo -0.0012645326 3.6192255254 9.1540331620 
S -1.5639746608 4.5463938423 7.5864640392 
S 0.0010039677 3.6390133871 4.6189623685 
S 0.0004054489 3.6387255023 1.4832232345 
S -1.5736479442 4.5292720226 10.7282165166 
Mo -3.1512226931 7.2774749019 -9.1672481230 
Mo -1.5755910988 6.3678216792 -3.0555115988 
S -3.1512162438 7.2774954350 -4.6232578178 
S -1.5756025210 6.3677884239 -7.6014065489 
S -1.5756020673 6.3677895528 -10.7330757790 
S -3.1512127704 7.2774877076 -1.4877200710 
Mo -3.1506578188 7.2772505046 3.0506085951 
Mo -1.5690660331 6.3538829115 9.1698569994 
S -3.1293316802 7.2661993923 7.5856160216 
S -1.5741206277 6.3681083186 4.6181153278 
S -1.5755154257 6.3675204559 1.4825654415 
S -3.1533826925 7.2723605747 10.7236295051 
Mo -4.7268400355 10.0065304219 -9.1672481230 
Mo -3.1512405618 9.0968403586 -3.0554816746 
S -4.7268341792 10.0065523623 -4.6232463762 
S -3.1512198634 9.0968439439 -7.6014065489 
S -3.1512194097 9.0968450728 -10.7330757790 
S -4.7268370797 10.0065537885 -1.4877176751 
Mo -4.7265612683 10.0063984728 3.0508614012 
Mo -3.1373685975 9.0888991994 9.1496511684 
S -4.7117101722 9.9978435664 7.5783006853 
S -3.1506166602 9.0965288057 4.6180706474 
S -3.1511459073 9.0968328704 1.4831558351 
S -4.7142753187 9.9993282181 10.7147561000 
Mo 3.1512517547 1.8193638619 -9.1672481230 
Mo 4.7269020221 0.9097289540 -3.0554823951 
S 3.1512612351 1.8193882564 -4.6232320683 
S 4.7268719268 0.9096773839 -7.6014065489 
S 4.7268723805 0.9096785128 -10.7330757790 
S 3.1512592485 1.8193890201 -1.4877261251 
Mo 3.1516786359 1.8193793730 3.0506174338 
Mo 4.7399970011 0.9023113378 9.1467227744 
S 3.1646661862 1.8177412264 7.5812150583 
S 4.7271888815 0.9092818125 4.6182792535 
S 4.7274009277 0.9096571588 1.4831989004 
S 3.1672232662 1.7914454706 10.7242678234 
Mo 1.5756344123 4.5484193819 -9.1672481230 
Mo 3.1512756394 3.6387769522 -3.0554814834 
S 1.5756504879 4.5484423799 -4.6232390542 
S 3.1512545844 3.6387329039 -7.6014065489 
S 3.1512550381 3.6387340328 -10.7330757790 
S 1.5756466253 4.5484431864 -1.4877251801 
Mo 1.5760776709 4.5487122242 3.0504578587 
Mo 3.1682435695 3.6213684373 9.1670002906 
S 1.5890884376 4.5657077976 7.6278119102 
S 3.1512413910 3.6389403102 4.6185785133 
S 3.1515883885 3.6387926781 1.4829498189 
S 1.5780042782 4.4504010407 10.7632596431 
Mo 0.0000170699 7.2774749019 -9.1672481230 
Mo 1.5756764447 6.3678236689 -3.0554877708 
S 0.0000381981 7.2774979204 -4.6232454413 
S 1.5756372420 6.3677884239 -7.6014065489 
S 1.5756376957 6.3677895528 -10.7330757790 
S 0.0000328088 7.2774946042 -1.4877307940 
Mo 0.0007777271 7.2770688428 3.0494528826 
Mo 1.5868724943 6.3613551161 9.2243601921 
S 0.0316587824 7.2592574107 7.6359992710 
S 1.5755776088 6.3678559065 4.6178614811 
S 1.5763573074 6.3674065337 1.4820446757 
S -0.0679351353 7.3167568914 10.7886508219 
Mo -1.5756002725 10.0065304219 -9.1672481230 
Mo 0.0000873425 9.0968676911 -3.0554912329 
S -1.5755883952 10.0065504530 -4.6232240150 
S 0.0000198996 9.0968439439 -7.6014065489 
S 0.0000203533 9.0968450728 -10.7330757790 
S -1.5755859047 10.0065492576 -1.4877362381 
Mo -1.5750936531 10.0062016156 3.0506068915 
Mo 0.0153774060 9.0982117762 9.1698600105 
S -1.5548417089 9.9932833542 7.5856160510 
S 0.0005134352 9.0954494970 4.6181166971 
S 0.0003276137 9.0969507906 1.4825641753 
S -1.5722048398 10.0110373107 10.7236283531 
Mo 6.3024915177 1.8193638619 -9.1672481230 
Mo 7.8781001445 0.9096521684 -3.0554919963 
S 6.3025008696 1.8193826232 -4.6232480596 
S 7.8781116898 0.9096773839 -7.6014065489 
S 7.8781121435 0.9096785128 -10.7330757790 
S 6.3025042007 1.8193849068 -1.4877147524 
Mo 6.3029457746 1.8191163220 3.0510293651 
Mo 7.8883740532 0.9068069678 9.1487347079 
S 6.3140568064 1.8154452311 7.5780822606 
S 7.8789183332 0.9091495684 4.6180918105 
S 7.8782525629 0.9093375062 1.4831806182 
S 6.3139023608 1.8146804610 10.7172153811 
Mo 4.7268741753 4.5484193819 -9.1672481230 
Mo 6.3024679138 3.6387501714 -3.0554895197 
S 4.7268748770 4.5484386753 -4.6232519432 
S 6.3024943474 3.6387329039 -7.6014065489 
S 6.3024948011 3.6387340328 -10.7330757790 
S 4.7268770533 4.5484432419 -1.4877137856 
Mo 4.7270535566 4.5483495775 3.0509316557 
Mo 6.3137357394 3.6322945178 9.1488692325 
S 4.7320556671 4.5454803794 7.5907136760 
S 6.3026364067 3.6386858767 4.6184267061 
S 6.3029703727 3.6384924363 1.4834640669 
S 4.7470204628 4.5368382216 10.7292022851 
Mo 3.1512568329 7.2774749019 -9.1672481230 
Mo 4.7268384135 6.3678043337 -3.0554959052 
S 3.1512606125 7.2774972547 -4.6232589675 
S 4.7268770050 6.3677884239 -7.6014065489 
S 4.7268774587 6.3677895528 -10.7330757790 
S 3.1512629079 7.2774963749 -1.4877081835 
Mo 3.1512529897 7.2769950486 3.0504594586 
Mo 4.7504542880 6.3618369939 9.1670037145 
S 3.1430574521 7.2572575029 7.6278157253 
S 4.7267197738 6.3677471625 4.6185787911 
S 4.7270249998 6.3675237085 1.4829554838 
S 3.2373750128 7.3245069176 10.7632647051 
Mo 1.5756394905 10.0065304219 -9.1672481230 
Mo 3.1512330605 9.0968514907 -3.0554878870 
S 1.5756499830 10.0065443759 -4.6232632674 
S 3.1512596626 9.0968439439 -7.6014065489 
S 3.1512601163 9.0968450728 -10.7330757790 
S 1.5756503041 10.0065459699 -1.4877044377 
Mo 1.5759867868 10.0059486848 3.0509029115 
Mo 3.1675609058 9.1077804302 9.1540386283 
S 1.5832561380 9.9975449075 7.5864685036 
S 3.1515424032 9.0958966668 4.6189637861 
S 3.1514925138 9.0965591441 1.4832241239 
S 1.5932466777 10.0144832059 10.7282189974 
Mo 9.4537312807 1.8193638619 -9.1672481230 
Mo 11.0293863460 0.9096952246 -3.0554894007 
S 9.4537395970 1.8193770750 -4.6232328036 
S 11.0293514528 0.9096773839 -7.6014065489 
S 11.0293519066 0.9096785128 -10.7330757790 
S 9.4537393632 1.8193794783 -1.4877366147 
Mo 9.4542677356 1.8190855480 3.0504007888 
Mo 11.0427038610 0.9020175436 9.1458542054 
S 9.4656196744 1.8125468228 7.5790636190 
S 11.0298933383 0.9093956849 4.6178167943 
S 11.0299541852 0.9093585329 1.4829607736 
S 9.4649905725 1.8129136660 10.7156520261 
Mo 7.8781139383 4.5484193819 -9.1672481230 
Mo 9.4537539161 3.6387607911 -3.0554933032 
S 7.8781175448 4.5484378232 -4.6232366318 
S 9.4537341104 3.6387329039 -7.6014065489 
S 9.4537345641 3.6387340328 -10.7330757790 
S 7.8781194018 4.5484411585 -1.4877377057 
Mo 7.8785845509 4.5481977501 3.0510292643 
Mo 9.4613926826 3.6313560611 9.1487332360 
S 7.8873310091 4.5404436369 7.5780812361 
S 9.4546208973 3.6383467981 4.6180916592 
S 9.4541242334 3.6388279817 1.4831779201 
S 7.8879199018 4.5409551912 10.7172152982 
Mo 6.3024965959 7.2774749019 -9.1672481230 
Mo 7.8781361655 6.3678242352 -3.0555014130 
S 6.3024973331 7.2774953556 -4.6232392528 
S 7.8781167680 6.3677884239 -7.6014065489 
S 7.8781172217 6.3677895528 -10.7330757790 
S 6.3024989866 7.2774929744 -1.4877349119 
Mo 6.3027258449 7.2771465830 3.0506230728 
Mo 7.8911013582 6.3601832335 9.1467271966 
S 6.3106510224 7.2667451438 7.5812190909 
S 7.8786485082 6.3677587424 4.6182812542 
S 7.8784256199 6.3673909787 1.4832021011 
S 6.3347034559 7.2776776981 10.7242731338 
Mo 4.7268792535 10.0065304219 -9.1672481230 
Mo 6.3025111524 9.0968738021 -3.0554915260 
S 4.7268840634 10.0065452125 -4.6232380477 
S 6.3024994256 9.0968439439 -7.6014065489 
S 6.3024998793 9.0968450728 -10.7330757790 
S 4.7268847312 10.0065459141 -1.4877283294 
Mo 4.7271818520 10.0060866667 3.0507838871 
Mo 6.3163059615 9.0898674725 9.1464683562 
S 4.7382659283 9.9994165245 7.5778950973 
S 6.3027365578 9.0962633074 4.6181606588 
S 6.3027963738 9.0966478289 1.4831228120 
S 4.7517623742 10.0100508684 10.7210899107 
Pd 1.6564160929 6.3211919964 12.1887054062 
H 2.5026902624 5.8325415938 13.4437652031 

