&CONTROL
   calculation      = 'relax'
   restart_mode     = 'from_scratch'
   wf_collect       = .true.
   nstep            = 1000
   tstress          = .false.
   tprnfor          = .true.
   outdir           = './outdir'
   pseudo_dir       = './pseudo'
/
&SYSTEM
   ecutwfc          = 77.0
   ecutrho          = 539.0
   nosym            = .true.
   occupations      = 'smearing'
   degauss          = 0.01
   smearing         = 'gaussian'
   assume_isolated  = 'esm'
   esm_bc           = 'bc1'
   vdw_corr         = 'dft-d3'
   dftd3_version    = 4
   ntyp             = 2
   nat              = 144
   ibrav            = 0
/
&ELECTRONS
   electron_maxstep = 1000
   conv_thr         = 1e-06
   mixing_beta      = 0.1
   diagonalization  = 'davidson'
/
&IONS
/
&CELL
/

ATOMIC_SPECIES
Mo 95.95 Mo.pbe-spn-kjpaw_psl.1.0.0.UPF
C 12.011 C.pbe-n-kjpaw_psl.1.0.0.UPF

K_POINTS automatic
2 2 1  0 0 0

CELL_PARAMETERS angstrom
9.43670064800199 0.00000000000000 0.00000000000000
-0.00001573697783 12.03707724199332 0.00000000000000
0.00000000000000 0.00000000000000 29.74927440701595

ATOMIC_POSITIONS angstrom
Mo 1.1601412554 0.7392257782 -4.7791904319  0 0 0
Mo 3.5582088138 5.2792776257 -5.6024999980  0 0 0
Mo 1.1990311056 2.2700257574 -7.3746295965  0 0 0
Mo 3.5192974860 3.7485357419 -3.0070750745  0 0 0
Mo 3.5193108535 2.2700268748 -5.6025060514  0 0 0
Mo 1.1990431667 3.7485346169 -4.7791968568  0 0 0
Mo 3.5582050753 0.7392299359 -3.0070762219  0 0 0
Mo 1.1601310663 5.2792769131 -7.3746372035  0 0 0
C 4.7183435275 2.2717513872 -3.8931456964  0 0 0
C 0.0000004698 3.7468077016 -6.4885521187  0 0 0
C 2.3591713727 0.7375051534 -6.4885600432  0 0 0
C 2.3591696184 5.2810089619 -3.8931478365  0 0 0
Mo 1.1601411016 0.7392215643 0.4116657071 
Mo 3.5582086600 5.2792734118 -0.4116438590 
Mo 1.1990309518 2.2700215435 -2.1837734575 
Mo 3.5192973321 3.7485315280 2.1837810645 
Mo 3.5193106997 2.2700226609 -0.4116499124 
Mo 1.1990430128 3.7485304029 0.4116592822 
Mo 3.5582049215 0.7392257219 2.1837799171 
Mo 1.1601309125 5.2792726992 -2.1837810645 
C 4.7183433736 2.2717471733 1.2977104426 
C 0.0000003160 3.7468034877 -1.2976959797 
C 2.3591712189 0.7375009395 -1.2977039042 
C 2.3591694646 5.2810047480 1.2977083025 
Mo 1.1601409478 0.7392173504 5.6025218461 
Mo 3.5582085062 5.2792691979 4.7792122800 
Mo 1.1990307980 2.2700173296 3.0070826815 
Mo 3.5192971783 3.7485273141 7.3746372035 
Mo 3.5193105459 2.2700184469 4.7792062266 
Mo 1.1990428590 3.7485261890 5.6025154212 
Mo 3.5582047677 0.7392215080 7.3746360561 
Mo 1.1601307587 5.2792684852 3.0070750745 
C 4.7183432198 2.2717429594 6.4885665816 
C 0.0000001622 3.7467992737 3.8931601593 
C 2.3591710651 0.7374967255 3.8931522348 
C 2.3591693108 5.2810005341 6.4885644415 
Mo 1.1601333869 6.7577643992 -4.7791904319  0 0 0
Mo 3.5582009453 11.2978162467 -5.6024999980  0 0 0
Mo 1.1990232371 8.2885643784 -7.3746295965  0 0 0
Mo 3.5192896175 9.7670743629 -3.0070750745  0 0 0
Mo 3.5193029850 8.2885654958 -5.6025060514  0 0 0
Mo 1.1990352982 9.7670732379 -4.7791968568  0 0 0
Mo 3.5581972068 6.7577685569 -3.0070762219  0 0 0
Mo 1.1601231978 11.2978155341 -7.3746372035  0 0 0
C 4.7183356590 8.2902900082 -3.8931456964  0 0 0
C -0.0000073987 9.7653463226 -6.4885521187  0 0 0
C 2.3591635042 6.7560437744 -6.4885600432  0 0 0
C 2.3591617499 11.2995475829 -3.8931478365  0 0 0
Mo 1.1601332331 6.7577601853 0.4116657071 
Mo 3.5582007915 11.2978120328 -0.4116438590 
Mo 1.1990230833 8.2885601645 -2.1837734575 
Mo 3.5192894637 9.7670701490 2.1837810645 
Mo 3.5193028312 8.2885612819 -0.4116499124 
Mo 1.1990351444 9.7670690239 0.4116592822 
Mo 3.5581970530 6.7577643429 2.1837799171 
Mo 1.1601230440 11.2978113202 -2.1837810645 
C 4.7183355052 8.2902857943 1.2977104426 
C -0.0000075525 9.7653421087 -1.2976959797 
C 2.3591633504 6.7560395605 -1.2977039042 
C 2.3591615961 11.2995433690 1.2977083025 
Mo 1.1601330793 6.7577559713 5.6025218461 
Mo 3.5582006377 11.2978078189 4.7792122800 
Mo 1.1990229295 8.2885559505 3.0070826815 
Mo 3.5192893098 9.7670659351 7.3746372035 
Mo 3.5193026774 8.2885570679 4.7792062266 
Mo 1.1990349905 9.7670648100 5.6025154212 
Mo 3.5581968992 6.7577601290 7.3746360561 
Mo 1.1601228902 11.2978071062 3.0070750745 
C 4.7183353513 8.2902815804 6.4885665816 
C -0.0000077063 9.7653378947 3.8931601593 
C 2.3591631966 6.7560353465 3.8931522348 
C 2.3591614423 11.2995391551 6.4885644415 
Mo 5.8784915794 0.7392257782 -4.7791904319  0 0 0
Mo 8.2765591378 5.2792776257 -5.6024999980  0 0 0
Mo 5.9173814296 2.2700257574 -7.3746295965  0 0 0
Mo 8.2376478100 3.7485357419 -3.0070750745  0 0 0
Mo 8.2376611775 2.2700268748 -5.6025060514  0 0 0
Mo 5.9173934907 3.7485346169 -4.7791968568  0 0 0
Mo 8.2765553993 0.7392299359 -3.0070762219  0 0 0
Mo 5.8784813903 5.2792769131 -7.3746372035  0 0 0
C -0.0000067965 2.2717513872 -3.8931456964  0 0 0
C 4.7183507938 3.7468077016 -6.4885521187  0 0 0
C 7.0775216967 0.7375051534 -6.4885600432  0 0 0
C 7.0775199424 5.2810089619 -3.8931478365  0 0 0
Mo 5.8784914256 0.7392215643 0.4116657071 
Mo 8.2765589840 5.2792734118 -0.4116438590 
Mo 5.9173812758 2.2700215435 -2.1837734575 
Mo 8.2376476561 3.7485315280 2.1837810645 
Mo 8.2376610237 2.2700226609 -0.4116499124 
Mo 5.9173933368 3.7485304029 0.4116592822 
Mo 8.2765552455 0.7392257219 2.1837799171 
Mo 5.8784812365 5.2792726992 -2.1837810645 
C -0.0000069504 2.2717471733 1.2977104426 
C 4.7183506400 3.7468034877 -1.2976959797 
C 7.0775215429 0.7375009395 -1.2977039042 
C 7.0775197886 5.2810047480 1.2977083025 
Mo 5.8784912718 0.7392173504 5.6025218461 
Mo 8.2765588302 5.2792691979 4.7792122800 
Mo 5.9173811220 2.2700173296 3.0070826815 
Mo 8.2376475023 3.7485273141 7.3746372035 
Mo 8.2376608699 2.2700184469 4.7792062266 
Mo 5.9173931830 3.7485261890 5.6025154212 
Mo 8.2765550917 0.7392215080 7.3746360561 
Mo 5.8784810827 5.2792684852 3.0070750745 
C -0.0000071042 2.2717429594 6.4885665816 
C 4.7183504862 3.7467992737 3.8931601593 
C 7.0775213891 0.7374967255 3.8931522348 
C 7.0775196348 5.2810005341 6.4885644415 
Mo 5.8784837109 6.7577643992 -4.7791904319  0 0 0
Mo 8.2765512693 11.2978162467 -5.6024999980  0 0 0
Mo 5.9173735611 8.2885643784 -7.3746295965  0 0 0
Mo 8.2376399415 9.7670743629 -3.0070750745  0 0 0
Mo 8.2376533090 8.2885654958 -5.6025060514  0 0 0
Mo 5.9173856222 9.7670732379 -4.7791968568  0 0 0
Mo 8.2765475308 6.7577685569 -3.0070762219  0 0 0
Mo 5.8784735218 11.2978155341 -7.3746372035  0 0 0
C -0.0000146650 8.2902900082 -3.8931456964  0 0 0
C 4.7183429253 9.7653463226 -6.4885521187  0 0 0
C 7.0775138282 6.7560437744 -6.4885600432  0 0 0
C 7.0775120739 11.2995475829 -3.8931478365  0 0 0
Mo 5.8784835571 6.7577601853 0.4116657071 
Mo 8.2765511155 11.2978120328 -0.4116438590 
Mo 5.9173734073 8.2885601645 -2.1837734575 
Mo 8.2376397877 9.7670701490 2.1837810645 
Mo 8.2376531552 8.2885612819 -0.4116499124 
Mo 5.9173854684 9.7670690239 0.4116592822 
Mo 8.2765473770 6.7577643429 2.1837799171 
Mo 5.8784733680 11.2978113202 -2.1837810645 
C -0.0000148188 8.2902857943 1.2977104426 
C 4.7183427715 9.7653421087 -1.2976959797 
C 7.0775136744 6.7560395605 -1.2977039042 
C 7.0775119201 11.2995433690 1.2977083025 
Mo 5.8784834033 6.7577559713 5.6025218461 
Mo 8.2765509617 11.2978078189 4.7792122800 
Mo 5.9173732535 8.2885559505 3.0070826815 
Mo 8.2376396338 9.7670659351 7.3746372035 
Mo 8.2376530014 8.2885570679 4.7792062266 
Mo 5.9173853145 9.7670648100 5.6025154212 
Mo 8.2765472232 6.7577601290 7.3746360561 
Mo 5.8784732142 11.2978071062 3.0070750745 
C -0.0000149727 8.2902815804 6.4885665816 
C 4.7183426177 9.7653378947 3.8931601593 
C 7.0775135206 6.7560353465 3.8931522348 
C 7.0775117663 11.2995391551 6.4885644415 

