&CONTROL
   calculation      = 'nscf'
   verbosity        = 'high'
   restart_mode     = 'from_scratch'
   wf_collect       = .true.
   outdir           = './outdir'
   pseudo_dir       = './pseudo'
/
&SYSTEM
   nbnd             = 1683
   ecutwfc          = 77.0
   ecutrho          = 539.0
   occupations      = 'tetrahedra'
   assume_isolated  = 'esm'
   esm_bc           = 'bc1'
   vdw_corr         = 'dft-d3'
   dftd3_version    = 4
   ntyp             = 4
   nat              = 194
   ibrav            = 0
/
&ELECTRONS
   electron_maxstep = 1000
   conv_thr         = 1e-06
   mixing_beta      = 0.2
   diagonalization  = 'david'
/
&IONS
/
&CELL
/

ATOMIC_SPECIES
Mo 95.95 Mo.pbe-spn-kjpaw_psl.1.0.0.UPF
S 32.06 S.pbe-n-kjpaw_psl.1.0.0.UPF
Pd 106.42 Pd.pbe-spn-kjpaw_psl.1.0.0.UPF
H 1.008 H.pbe-kjpaw_psl.1.0.0.UPF

K_POINTS automatic
2 2 1  0 0 0

CELL_PARAMETERS angstrom
12.60495876880469 0.00000000000000 0.00000000000000
-6.30246677944357 10.91622202271285 0.00000000000000
0.00000000000000 0.00000000000000 36.46614571815195

ATOMIC_POSITIONS angstrom
Mo 0.0000119917 1.8193638619 -9.1672481230 
Mo 1.5756136568 0.9097075315 -3.0554901653 
S 0.0000188998 1.8193822938 -4.6232556019 
S 1.5756321638 0.9096773839 -7.6014065489 
S 1.5756326175 0.9096785128 -10.7330757790 
S 0.0000189190 1.8193860094 -1.4877129945 
Mo 0.0011098091 1.8163531802 3.0565673006 
Mo 1.5810523819 0.8788859598 9.1500993145 
S 0.0016266763 1.7805662301 7.5755410687 
S 1.5772003603 0.9063351774 4.6234365645 
S 1.5769013611 0.9073060949 1.4884824852 
S 0.0079842393 1.7817011665 10.7246595274 
Mo -1.5756053507 4.5484193819 -9.1672481230 
Mo 0.0000378379 3.6387394919 -3.0554952701 
S -1.5755913433 4.5484363582 -4.6232494962 
S 0.0000148214 3.6387329039 -7.6014065489 
S 0.0000152751 3.6387340328 -10.7330757790 
S -1.5755906502 4.5484413613 -1.4877305502 
Mo -1.5748025976 4.5453067187 3.0565632647 
Mo -0.0079820440 3.5880721584 9.1509881156 
S -1.5804603845 4.5126849381 7.5819305985 
S 0.0009635341 3.6357130472 4.6241658637 
S 0.0013765684 3.6362563524 1.4891633682 
S -1.5751356269 4.5155431496 10.7161710545 
Mo -3.1512226931 7.2774749019 -9.1672481230 
Mo -1.5755910988 6.3678216792 -3.0555115988 
S -3.1512162438 7.2774954350 -4.6232578178 
S -1.5756025210 6.3677884239 -7.6014065489 
S -1.5756020673 6.3677895528 -10.7330757790 
S -3.1512127704 7.2774877076 -1.4877200710 
Mo -3.1503727221 7.2744132266 3.0567712683 
Mo -1.5950022543 6.3365276303 9.1506464866 
S -3.1571611325 7.2481859986 7.5765605677 
S -1.5745045234 6.3643392998 4.6242067149 
S -1.5744221058 6.3650854921 1.4891916655 
S -3.1501688910 7.2529750393 10.7261773674 
Mo -4.7268400355 10.0065304219 -9.1672481230 
Mo -3.1512405618 9.0968403586 -3.0554816746 
S -4.7268341792 10.0065523623 -4.6232463762 
S -3.1512198634 9.0968439439 -7.6014065489 
S -3.1512194097 9.0968450728 -10.7330757790 
S -4.7268370797 10.0065537885 -1.4877176751 
Mo -4.7258731272 10.0035164479 3.0557246771 
Mo -3.1471413183 9.0669144243 9.1504026967 
S -4.7279874958 9.9729599955 7.5858687908 
S -3.1501574530 9.0940526638 4.6235261128 
S -3.1498645486 9.0938353219 1.4885997961 
S -4.7084134133 9.9842660634 10.7262021239 
Mo 3.1512517547 1.8193638619 -9.1672481230 
Mo 4.7269020221 0.9097289540 -3.0554823951 
S 3.1512612351 1.8193882564 -4.6232320683 
S 4.7268719268 0.9096773839 -7.6014065489 
S 4.7268723805 0.9096785128 -10.7330757790 
S 3.1512592485 1.8193890201 -1.4877261251 
Mo 3.1526882515 1.8168225248 3.0565109599 
Mo 4.7302238842 0.8787928048 9.1580553442 
S 3.1617132584 1.7983467858 7.5895487982 
S 4.7286909793 0.9069496785 4.6240555254 
S 4.7280960148 0.9071027927 1.4886333875 
S 3.1551676889 1.7735300131 10.7297096763 
Mo 1.5756344123 4.5484193819 -9.1672481230 
Mo 3.1512756394 3.6387769522 -3.0554814834 
S 1.5756504879 4.5484423799 -4.6232390542 
S 3.1512545844 3.6387329039 -7.6014065489 
S 3.1512550381 3.6387340328 -10.7330757790 
S 1.5756466253 4.5484431864 -1.4877251801 
Mo 1.5770055837 4.5458745858 3.0574070449 
Mo 3.1567663393 3.6022149559 9.1759802761 
S 1.5768652140 4.5243574314 7.6120034494 
S 3.1533032970 3.6361821967 4.6247851301 
S 3.1520259979 3.6363947458 1.4889138563 
S 1.5647613547 4.4187022087 10.7624750573 
Mo 0.0000170699 7.2774749019 -9.1672481230 
Mo 1.5756764447 6.3678236689 -3.0554877708 
S 0.0000381981 7.2774979204 -4.6232454413 
S 1.5756372420 6.3677884239 -7.6014065489 
S 1.5756376957 6.3677895528 -10.7330757790 
S 0.0000328088 7.2774946042 -1.4877307940 
Mo 0.0015109133 7.2744484960 3.0573177901 
Mo 1.5414789100 6.3151270072 9.1773759848 
S 0.0078127995 7.2403809056 7.6101807386 
S 1.5779528320 6.3654177386 4.6261625026 
S 1.5763693169 6.3647800428 1.4891006573 
S -0.0886270623 7.2840942550 10.7601198339 
Mo -1.5756002725 10.0065304219 -9.1672481230 
Mo 0.0000873425 9.0968676911 -3.0554912329 
S -1.5755883952 10.0065504530 -4.6232240150 
S 0.0000198996 9.0968439439 -7.6014065489 
S 0.0000203533 9.0968450728 -10.7330757790 
S -1.5755859047 10.0065492576 -1.4877362381 
Mo -1.5740981938 10.0036649383 3.0564982282 
Mo -0.0015970989 9.0704413797 9.1717634641 
S -1.5630622529 9.9778462641 7.5878612241 
S 0.0022668732 9.0942862820 4.6244699032 
S 0.0011256062 9.0935583081 1.4888528697 
S -1.5835217307 9.9819480914 10.7283458592 
Mo 6.3024915177 1.8193638619 -9.1672481230 
Mo 7.8781001445 0.9096521684 -3.0554919963 
S 6.3025008696 1.8193826232 -4.6232480596 
S 7.8781116898 0.9096773839 -7.6014065489 
S 7.8781121435 0.9096785128 -10.7330757790 
S 6.3025042007 1.8193849068 -1.4877147524 
Mo 6.3037471757 1.8166964232 3.0562239873 
Mo 7.8846798116 0.8793279009 9.1755485593 
S 6.3122285981 1.7945906307 7.6028590221 
S 7.8789943802 0.9057186236 4.6239947328 
S 7.8792315379 0.9069716535 1.4882413981 
S 6.3029225829 1.7854889281 10.7364656739 
Mo 4.7268741753 4.5484193819 -9.1672481230 
Mo 6.3024679138 3.6387501714 -3.0554895197 
S 4.7268748770 4.5484386753 -4.6232519432 
S 6.3024943474 3.6387329039 -7.6014065489 
S 6.3024948011 3.6387340328 -10.7330757790 
S 4.7268770533 4.5484432419 -1.4877137856 
Mo 4.7277431529 4.5461192288 3.0560592847 
Mo 6.3076591849 3.6113090722 9.1793693931 
S 4.7293888394 4.5394016923 7.6286503443 
S 6.3025645623 3.6359158234 4.6243522229 
S 6.3034453523 3.6364308743 1.4884790234 
S 4.7305546896 4.4949219287 10.7621622518 
Mo 3.1512568329 7.2774749019 -9.1672481230 
Mo 4.7268384135 6.3678043337 -3.0554959052 
S 3.1512606125 7.2774972547 -4.6232589675 
S 4.7268770050 6.3677884239 -7.6014065489 
S 4.7268774587 6.3677895528 -10.7330757790 
S 3.1512629079 7.2774963749 -1.4877081835 
Mo 3.1522642466 7.2746706957 3.0559667680 
Mo 4.7447970680 6.3493674970 9.2382602106 
S 3.1457242405 7.2396112594 7.6948004645 
S 4.7265515522 6.3651889720 4.6246373630 
S 4.7277678443 6.3654276385 1.4879175298 
S 3.3845693504 7.3797215235 10.9773540323 
Mo 1.5756394905 10.0065304219 -9.1672481230 
Mo 3.1512330605 9.0968514907 -3.0554878870 
S 1.5756499830 10.0065443759 -4.6232632674 
S 3.1512596626 9.0968439439 -7.6014065489 
S 3.1512601163 9.0968450728 -10.7330757790 
S 1.5756503041 10.0065459699 -1.4877044377 
Mo 1.5771766704 10.0032722893 3.0557393547 
Mo 3.1727839133 9.0714102378 9.2372379674 
S 1.5990073369 9.9625857727 7.6259914676 
S 3.1519775046 9.0926860718 4.6245044276 
S 3.1525871247 9.0938611474 1.4877111563 
S 1.5571258815 9.9877464701 10.7583536708 
Mo 9.4537312807 1.8193638619 -9.1672481230 
Mo 11.0293863460 0.9096952246 -3.0554894007 
S 9.4537395970 1.8193770750 -4.6232328036 
S 11.0293514528 0.9096773839 -7.6014065489 
S 11.0293519066 0.9096785128 -10.7330757790 
S 9.4537393632 1.8193794783 -1.4877366147 
Mo 9.4545042918 1.8162029674 3.0563209234 
Mo 11.0373733671 0.8856785156 9.1546227244 
S 9.4502961749 1.7837237218 7.5925061681 
S 11.0299783234 0.9059680333 4.6241198081 
S 11.0304367045 0.9066855914 1.4889188849 
S 9.4641795569 1.7948689523 10.7314862011 
Mo 7.8781139383 4.5484193819 -9.1672481230 
Mo 9.4537539161 3.6387607911 -3.0554933032 
S 7.8781175448 4.5484378232 -4.6232366318 
S 9.4537341104 3.6387329039 -7.6014065489 
S 9.4537345641 3.6387340328 -10.7330757790 
S 7.8781194018 4.5484411585 -1.4877377057 
Mo 7.8786486060 4.5454724905 3.0566861553 
Mo 9.4529224016 3.6062600087 9.1577168238 
S 7.8714232635 4.5160407783 7.5948411191 
S 9.4542984129 3.6352580781 4.6239606014 
S 9.4544772050 3.6361173862 1.4886844397 
S 7.8914773748 4.5203152141 10.7347530683 
Mo 6.3024965959 7.2774749019 -9.1672481230 
Mo 7.8781361655 6.3678242352 -3.0555014130 
S 6.3024973331 7.2774953556 -4.6232392528 
S 7.8781167680 6.3677884239 -7.6014065489 
S 7.8781172217 6.3677895528 -10.7330757790 
S 6.3024989866 7.2774929744 -1.4877349119 
Mo 6.3027014014 7.2745794179 3.0567585443 
Mo 7.8895028558 6.3376990781 9.1576017188 
S 6.2855797348 7.2420320264 7.6156229154 
S 7.8782410785 6.3646864150 4.6245247609 
S 7.8787284307 6.3651125485 1.4891379532 
S 6.3606614260 7.2576698155 10.7517557872 
Mo 4.7268792535 10.0065304219 -9.1672481230 
Mo 6.3025111524 9.0968738021 -3.0554915260 
S 4.7268840634 10.0065452125 -4.6232380477 
S 6.3024994256 9.0968439439 -7.6014065489 
S 6.3024998793 9.0968450728 -10.7330757790 
S 4.7268847312 10.0065459141 -1.4877283294 
Mo 4.7275027308 10.0029641915 3.0565612997 
Mo 6.3152977327 9.0717080613 9.1718641545 
S 4.7148445481 9.9591144750 7.6144922276 
S 6.3033850207 9.0938506972 4.6243446002 
S 6.3031263648 9.0938071865 1.4885147455 
S 4.7676940346 10.0191575574 10.7511899804 
Pd 1.6362884838 6.3703926936 12.0689119922 
H 4.3173969296 7.9218504524 11.8839042287 

