&CONTROL
   calculation      = 'nscf'
   verbosity        = 'high'
   restart_mode     = 'from_scratch'
   wf_collect       = .true.
   outdir           = './outdir'
   pseudo_dir       = './pseudo'
/
&SYSTEM
   nbnd             = 1665
   ecutwfc          = 77.0
   ecutrho          = 539.0
   occupations      = 'tetrahedra'
   assume_isolated  = 'esm'
   esm_bc           = 'bc1'
   vdw_corr         = 'dft-d3'
   dftd3_version    = 4
   ntyp             = 3
   nat              = 193
   ibrav            = 0
/
&ELECTRONS
   electron_maxstep = 1000
   conv_thr         = 1e-06
   mixing_beta      = 0.2
   diagonalization  = 'david'
/
&IONS
/
&CELL
/

ATOMIC_SPECIES
Mo 95.95 Mo.pbe-spn-kjpaw_psl.1.0.0.UPF
S 32.06 S.pbe-n-kjpaw_psl.1.0.0.UPF
H 1.008 H.pbe-kjpaw_psl.1.0.0.UPF

K_POINTS automatic
2 2 1  0 0 0

CELL_PARAMETERS angstrom
12.60495876880469 0.00000000000000 0.00000000000000
-6.30246677944357 10.91622202271285 0.00000000000000
0.00000000000000 0.00000000000000 36.46614571815195

ATOMIC_POSITIONS angstrom
Mo 0.0000119917 1.8193638619 -9.1672481230 
Mo 1.5756136568 0.9097075315 -3.0554901653 
S 0.0000188998 1.8193822938 -4.6232556019 
S 1.5756321638 0.9096773839 -7.6014065489 
S 1.5756326175 0.9096785128 -10.7330757790 
S 0.0000189190 1.8193860094 -1.4877129945 
Mo 0.0000525983 1.8193590367 3.0554199215 
Mo 1.5743151841 0.9130727673 9.1670750881 
S -0.0019820933 1.8217753875 7.5979116186 
S 1.5758150764 0.9096503410 4.6230064250 
S 1.5755935704 0.9096569142 1.4875825960 
S 0.0012912335 1.8241582466 10.7363132602 
Mo -1.5756053507 4.5484193819 -9.1672481230 
Mo 0.0000378379 3.6387394919 -3.0554952701 
S -1.5755913433 4.5484363582 -4.6232494962 
S 0.0000148214 3.6387329039 -7.6014065489 
S 0.0000152751 3.6387340328 -10.7330757790 
S -1.5755906502 4.5484413613 -1.4877305502 
Mo -1.5755795901 4.5484407856 3.0554190920 
Mo 0.0019358126 3.6398490014 9.1630143442 
S -1.5745164208 4.5454928127 7.5979108555 
S 0.0000192970 3.6387265407 4.6232647124 
S 0.0000815362 3.6387610909 1.4877664228 
S -1.5708145441 4.5471399430 10.7363130584 
Mo -3.1512226931 7.2774749019 -9.1672481230 
Mo -1.5755910988 6.3678216792 -3.0555115988 
S -3.1512162438 7.2774954350 -4.6232578178 
S -1.5756025210 6.3677884239 -7.6014065489 
S -1.5756020673 6.3677895528 -10.7330757790 
S -3.1512127704 7.2774877076 -1.4877200710 
Mo -3.1511945529 7.2775196846 3.0553645300 
Mo -1.5733229666 6.3649609177 9.1670731834 
S -3.1511847422 7.2764046216 7.6010814174 
S -1.5755246011 6.3679483663 4.6230054439 
S -1.5756347260 6.3677525646 1.4875810526 
S -3.1511851499 7.2752135849 10.7350956012 
Mo -4.7268400355 10.0065304219 -9.1672481230 
Mo -3.1512405618 9.0968403586 -3.0554816746 
S -4.7268341792 10.0065523623 -4.6232463762 
S -3.1512198634 9.0968439439 -7.6014065489 
S -3.1512194097 9.0968450728 -10.7330757790 
S -4.7268370797 10.0065537885 -1.4877176751 
Mo -4.7267786665 10.0065199593 3.0553616596 
Mo -3.1511833895 9.0968700860 9.1679152122 
S -4.7277509034 10.0071049102 7.6010815218 
S -3.1511903401 9.0968536797 4.6232843842 
S -3.1511919531 9.0968512074 1.4876759261 
S -4.7287825685 10.0076978283 10.7350960549 
Mo 3.1512517547 1.8193638619 -9.1672481230 
Mo 4.7269020221 0.9097289540 -3.0554823951 
S 3.1512612351 1.8193882564 -4.6232320683 
S 4.7268719268 0.9096773839 -7.6014065489 
S 4.7268723805 0.9096785128 -10.7330757790 
S 3.1512592485 1.8193890201 -1.4877261251 
Mo 3.1512795503 1.8193741391 3.0550779860 
Mo 4.7282596349 0.9130735844 9.1670751156 
S 3.1512879183 1.8112976052 7.5944009112 
S 4.7267449644 0.9096470645 4.6230055134 
S 4.7269669710 0.9096560097 1.4875830947 
S 3.1512878055 1.8192758623 10.7344279110 
Mo 1.5756344123 4.5484193819 -9.1672481230 
Mo 3.1512756394 3.6387769522 -3.0554814834 
S 1.5756504879 4.5484423799 -4.6232390542 
S 3.1512545844 3.6387329039 -7.6014065489 
S 3.1512550381 3.6387340328 -10.7330757790 
S 1.5756466253 4.5484431864 -1.4877251801 
Mo 1.5757135964 4.5484558518 3.0554367342 
Mo 3.1512884694 3.6390493799 9.1606861226 
S 1.5730318846 4.5469210081 7.5951615193 
S 3.1512815903 3.6385648328 4.6229624305 
S 3.1512816036 3.6389007233 1.4874626457 
S 1.6357842882 4.5831546509 10.7618825219 
Mo 0.0000170699 7.2774749019 -9.1672481230 
Mo 1.5756764447 6.3678236689 -3.0554877708 
S 0.0000381981 7.2774979204 -4.6232454413 
S 1.5756372420 6.3677884239 -7.6014065489 
S 1.5756376957 6.3677895528 -10.7330757790 
S 0.0000328088 7.2774946042 -1.4877307940 
Mo 0.0000488058 7.2774799749 3.0550739708 
Mo 1.5759226485 6.3676757921 9.1606848047 
S -0.0069505505 7.2815435124 7.5943961341 
S 1.5755110168 6.3678864567 4.6229609854 
S 1.5758021299 6.3677157448 1.4874582361 
S -0.0000418302 7.2775571065 10.7344314454 
Mo -1.5756002725 10.0065304219 -9.1672481230 
Mo 0.0000873425 9.0968676911 -3.0554912329 
S -1.5755883952 10.0065504530 -4.6232240150 
S 0.0000198996 9.0968439439 -7.6014065489 
S 0.0000203533 9.0968450728 -10.7330757790 
S -1.5755859047 10.0065492576 -1.4877362381 
Mo -1.5756017349 10.0065181435 3.0553605232 
Mo 0.0036494751 9.0963550484 9.1670715848 
S -1.5746135171 10.0071037639 7.6010818351 
S -0.0000573101 9.0967353691 4.6230020802 
S 0.0000563757 9.0969246700 1.4875781874 
S -1.5735815585 10.0076970990 10.7350959973 
Mo 6.3024915177 1.8193638619 -9.1672481230 
Mo 7.8781001445 0.9096521684 -3.0554919963 
S 6.3025008696 1.8193826232 -4.6232480596 
S 7.8781116898 0.9096773839 -7.6014065489 
S 7.8781121435 0.9096785128 -10.7330757790 
S 6.3025042007 1.8193849068 -1.4877147524 
Mo 6.3025076408 1.8193585565 3.0554220143 
Mo 7.8779354983 0.9095774549 9.1672676131 
S 6.3045593363 1.8217754527 7.5979119170 
S 7.8782319396 0.9097336724 4.6230243935 
S 7.8781051011 0.9096659544 1.4876437918 
S 6.3012853988 1.8241597602 10.7363105859 
Mo 4.7268741753 4.5484193819 -9.1672481230 
Mo 6.3024679138 3.6387501714 -3.0554895197 
S 4.7268748770 4.5484386753 -4.6232519432 
S 6.3024943474 3.6387329039 -7.6014065489 
S 6.3024948011 3.6387340328 -10.7330757790 
S 4.7268770533 4.5484432419 -1.4877137856 
Mo 4.7268496351 4.5484543310 3.0554381761 
Mo 6.3006439713 3.6398497418 9.1630115325 
S 4.7295482768 4.5469209555 7.5951653716 
S 6.3025444168 3.6387267890 4.6232642329 
S 6.3024821218 3.6387609130 1.4877700865 
S 4.6667628200 4.5831743777 10.7619021581 
Mo 3.1512568329 7.2774749019 -9.1672481230 
Mo 4.7268384135 6.3678043337 -3.0554959052 
S 3.1512606125 7.2774972547 -4.6232589675 
S 4.7268770050 6.3677884239 -7.6014065489 
S 4.7268774587 6.3677895528 -10.7330757790 
S 3.1512629079 7.2774963749 -1.4877081835 
Mo 3.1512833878 7.2774230401 3.0554341725 
Mo 4.7266620244 6.3676775300 9.1606832522 
S 3.1512923535 7.2805450096 7.5951510674 
S 4.7270562951 6.3678881359 4.6229645701 
S 4.7267665298 6.3677177458 1.4874579664 
S 3.1512926133 7.2081759899 10.7618299516 
Mo 1.5756394905 10.0065304219 -9.1672481230 
Mo 3.1512330605 9.0968514907 -3.0554878870 
S 1.5756499830 10.0065443759 -4.6232632674 
S 3.1512596626 9.0968439439 -7.6014065489 
S 3.1512601163 9.0968450728 -10.7330757790 
S 1.5756503041 10.0065459699 -1.4877044377 
Mo 1.5756540218 10.0065304598 3.0554153125 
Mo 3.1512965259 9.0946906625 9.1630176134 
S 1.5787589091 10.0071179627 7.5979094664 
S 3.1512866941 9.0968778568 4.6232626470 
S 3.1512886718 9.0968064990 1.4877624861 
S 1.5791843260 10.0030923253 10.7363151708 
Mo 9.4537312807 1.8193638619 -9.1672481230 
Mo 11.0293863460 0.9096952246 -3.0554894007 
S 9.4537395970 1.8193770750 -4.6232328036 
S 11.0293514528 0.9096773839 -7.6014065489 
S 11.0293519066 0.9096785128 -10.7330757790 
S 9.4537393632 1.8193794783 -1.4877366147 
Mo 9.4537605801 1.8193694216 3.0552852721 
Mo 11.0295996891 0.9095789903 9.1672681893 
S 9.4537685029 1.8193875100 7.5999622370 
S 11.0292883549 0.9097357017 4.6230236257 
S 11.0294137754 0.9096643069 1.4876441135 
S 9.4537684800 1.8193884378 10.7347498243 
Mo 7.8781139383 4.5484193819 -9.1672481230 
Mo 9.4537539161 3.6387607911 -3.0554933032 
S 7.8781175448 4.5484378232 -4.6232366318 
S 9.4537341104 3.6387329039 -7.6014065489 
S 9.4537345641 3.6387340328 -10.7330757790 
S 7.8781194018 4.5484411585 -1.4877377057 
Mo 7.8781445662 4.5484417210 3.0554202064 
Mo 9.4537717313 3.6390044852 9.1672679356 
S 7.8770998710 4.5454922607 7.5979111461 
S 9.4537636024 3.6386352254 4.6230234757 
S 9.4537621905 3.6387793686 1.4876454647 
S 7.8733967713 4.5471394280 10.7363106221 
Mo 6.3024965959 7.2774749019 -9.1672481230 
Mo 7.8781361655 6.3678242352 -3.0555014130 
S 6.3024973331 7.2774953556 -4.6232392528 
S 7.8781167680 6.3677884239 -7.6014065489 
S 7.8781172217 6.3677895528 -10.7330757790 
S 6.3024989866 7.2774929744 -1.4877349119 
Mo 6.3025208216 7.2774809684 3.0550773721 
Mo 7.8759095549 6.3649607708 9.1670728016 
S 6.3095391138 7.2815451669 7.5943965175 
S 7.8780966703 6.3679486322 4.6230045868 
S 7.8782028454 6.3677532948 1.4875855555 
S 6.3026297659 7.2775585584 10.7344280984 
Mo 4.7268792535 10.0065304219 -9.1672481230 
Mo 6.3025111524 9.0968738021 -3.0554915260 
S 4.7268840634 10.0065452125 -4.6232380477 
S 6.3024994256 9.0968439439 -7.6014065489 
S 6.3024998793 9.0968450728 -10.7330757790 
S 4.7268847312 10.0065459141 -1.4877283294 
Mo 4.7269226705 10.0065320786 3.0554176464 
Mo 6.2989442677 9.0963564022 9.1670712085 
S 4.7238359135 10.0071190347 7.5979084890 
S 6.3026346176 9.0967374919 4.6230050119 
S 6.3025189081 9.0969256691 1.4875817809 
S 4.7234109169 10.0030933509 10.7363163873 
H 3.1513650911 5.4578927616 11.6326757941 

