&CONTROL
   calculation      = 'nscf'
   verbosity        = 'high'
   restart_mode     = 'from_scratch'
   wf_collect       = .true.
   outdir           = './outdir'
   pseudo_dir       = './pseudo'
/
&SYSTEM
   nbnd             = 1683
   ecutwfc          = 77.0
   ecutrho          = 539.0
   occupations      = 'tetrahedra'
   assume_isolated  = 'esm'
   esm_bc           = 'bc1'
   vdw_corr         = 'dft-d3'
   dftd3_version    = 4
   ntyp             = 4
   nat              = 194
   ibrav            = 0
/
&ELECTRONS
   electron_maxstep = 1000
   conv_thr         = 1e-06
   mixing_beta      = 0.2
   diagonalization  = 'david'
/
&IONS
/
&CELL
/

ATOMIC_SPECIES
Mo 95.95 Mo.pbe-spn-kjpaw_psl.1.0.0.UPF
S 32.06 S.pbe-n-kjpaw_psl.1.0.0.UPF
Pd 106.42 Pd.pbe-spn-kjpaw_psl.1.0.0.UPF
H 1.008 H.pbe-kjpaw_psl.1.0.0.UPF

K_POINTS automatic
2 2 1  0 0 0

CELL_PARAMETERS angstrom
12.60495876880469 0.00000000000000 0.00000000000000
-6.30246677944357 10.91622202271285 0.00000000000000
0.00000000000000 0.00000000000000 36.46614571815195

ATOMIC_POSITIONS angstrom
Mo 0.0000119917 1.8193638619 -9.1672481230 
Mo 1.5756136568 0.9097075315 -3.0554901653 
S 0.0000188998 1.8193822938 -4.6232556019 
S 1.5756321638 0.9096773839 -7.6014065489 
S 1.5756326175 0.9096785128 -10.7330757790 
S 0.0000189190 1.8193860094 -1.4877129945 
Mo 0.0009571014 1.8199159350 3.0556486984 
Mo 1.5815530863 0.9117910465 9.1671664309 
S 0.0040993383 1.8158573654 7.5939036797 
S 1.5761024221 0.9100224255 4.6243549959 
S 1.5764011996 0.9102273991 1.4873299647 
S -0.0220077532 1.8054951084 10.7375579979 
Mo -1.5756053507 4.5484193819 -9.1672481230 
Mo 0.0000378379 3.6387394919 -3.0554952701 
S -1.5755913433 4.5484363582 -4.6232494962 
S 0.0000148214 3.6387329039 -7.6014065489 
S 0.0000152751 3.6387340328 -10.7330757790 
S -1.5755906502 4.5484413613 -1.4877305502 
Mo -1.5756508587 4.5487628365 3.0564155286 
Mo -0.0058140975 3.6255957801 9.1721614094 
S -1.5705183845 4.5475815933 7.5957437332 
S 0.0006597240 3.6391741628 4.6249783689 
S -0.0002825650 3.6390781328 1.4880597853 
S -1.5800469463 4.5458455084 10.7346291259 
Mo -3.1512226931 7.2774749019 -9.1672481230 
Mo -1.5755910988 6.3678216792 -3.0555115988 
S -3.1512162438 7.2774954350 -4.6232578178 
S -1.5756025210 6.3677884239 -7.6014065489 
S -1.5756020673 6.3677895528 -10.7330757790 
S -3.1512127704 7.2774877076 -1.4877200710 
Mo -3.1509742222 7.2769805860 3.0560057609 
Mo -1.5893418508 6.3676791182 9.1703762680 
S -3.1487512927 7.2795987691 7.5875767932 
S -1.5749513260 6.3679753290 4.6243614002 
S -1.5753912567 6.3676894788 1.4879257280 
S -3.1669007316 7.2813302891 10.7316965985 
Mo -4.7268400355 10.0065304219 -9.1672481230 
Mo -3.1512405618 9.0968403586 -3.0554816746 
S -4.7268341792 10.0065523623 -4.6232463762 
S -3.1512198634 9.0968439439 -7.6014065489 
S -3.1512194097 9.0968450728 -10.7330757790 
S -4.7268370797 10.0065537885 -1.4877176751 
Mo -4.7262254601 10.0072180629 3.0556080988 
Mo -3.1528498248 9.0989933159 9.1583454790 
S -4.7302881598 10.0134271245 7.5920626345 
S -3.1510783565 9.0969576054 4.6241538133 
S -3.1510638029 9.0965902606 1.4880682846 
S -4.7339133620 9.9906517167 10.7312559243 
Mo 3.1512517547 1.8193638619 -9.1672481230 
Mo 4.7269020221 0.9097289540 -3.0554823951 
S 3.1512612351 1.8193882564 -4.6232320683 
S 4.7268719268 0.9096773839 -7.6014065489 
S 4.7268723805 0.9096785128 -10.7330757790 
S 3.1512592485 1.8193890201 -1.4877261251 
Mo 3.1514758650 1.8194839785 3.0567103293 
Mo 4.7201915285 0.9133869814 9.1684498795 
S 3.1527802194 1.8201980609 7.5737197392 
S 4.7266147542 0.9100711639 4.6244368602 
S 4.7261070534 0.9100451714 1.4870109340 
S 3.1549468951 1.8054804913 10.6979443355 
Mo 1.5756344123 4.5484193819 -9.1672481230 
Mo 3.1512756394 3.6387769522 -3.0554814834 
S 1.5756504879 4.5484423799 -4.6232390542 
S 3.1512545844 3.6387329039 -7.6014065489 
S 3.1512550381 3.6387340328 -10.7330757790 
S 1.5756466253 4.5484431864 -1.4877251801 
Mo 1.5758843512 4.5478775018 3.0554971938 
Mo 3.1596515603 3.6185198139 9.1789298396 
S 1.5832589562 4.5721841463 7.6450897966 
S 3.1507552512 3.6385812010 4.6253627961 
S 3.1514111503 3.6380764945 1.4874696259 
S 1.5642669054 4.4548176196 10.7955956362 
Mo 0.0000170699 7.2774749019 -9.1672481230 
Mo 1.5756764447 6.3678236689 -3.0554877708 
S 0.0000381981 7.2774979204 -4.6232454413 
S 1.5756372420 6.3677884239 -7.6014065489 
S 1.5756376957 6.3677895528 -10.7330757790 
S 0.0000328088 7.2774946042 -1.4877307940 
Mo 0.0003166537 7.2772536450 3.0559094394 
Mo 1.5744270052 6.3793586105 9.2273708958 
S 0.0194659011 7.2656380831 7.6347212517 
S 1.5757528947 6.3672814282 4.6233440021 
S 1.5758461285 6.3674843695 1.4875770026 
S -0.0968228492 7.3303744412 10.7920922929 
Mo -1.5756002725 10.0065304219 -9.1672481230 
Mo 0.0000873425 9.0968676911 -3.0554912329 
S -1.5755883952 10.0065504530 -4.6232240150 
S 0.0000198996 9.0968439439 -7.6014065489 
S 0.0000203533 9.0968450728 -10.7330757790 
S -1.5755859047 10.0065492576 -1.4877362381 
Mo -1.5759427604 10.0072940911 3.0556927690 
Mo 0.0025294836 9.1033556309 9.1717955300 
S -1.5697950063 10.0129819392 7.5949243970 
S -0.0001907390 9.0964950282 4.6236297726 
S 0.0000909317 9.0971572047 1.4882203855 
S -1.5806895892 10.0010054181 10.7384497268 
Mo 6.3024915177 1.8193638619 -9.1672481230 
Mo 7.8781001445 0.9096521684 -3.0554919963 
S 6.3025008696 1.8193826232 -4.6232480596 
S 7.8781116898 0.9096773839 -7.6014065489 
S 7.8781121435 0.9096785128 -10.7330757790 
S 6.3025042007 1.8193849068 -1.4877147524 
Mo 6.3015187399 1.8194108590 3.0554122730 
Mo 7.8855179911 0.9054435611 9.1640629058 
S 6.2995459284 1.8144157714 7.5965306512 
S 7.8776704980 0.9098163253 4.6228788762 
S 7.8777798656 0.9093227351 1.4880956772 
S 6.3187628832 1.8218148559 10.7357910327 
Mo 4.7268741753 4.5484193819 -9.1672481230 
Mo 6.3024679138 3.6387501714 -3.0554895197 
S 4.7268748770 4.5484386753 -4.6232519432 
S 6.3024943474 3.6387329039 -7.6014065489 
S 6.3024948011 3.6387340328 -10.7330757790 
S 4.7268770533 4.5484432419 -1.4877137856 
Mo 4.7263537089 4.5477037015 3.0562420613 
Mo 6.3026779166 3.6378257417 9.1634784527 
S 4.7184669322 4.5490542893 7.6021674832 
S 6.3024591871 3.6385992863 4.6242388393 
S 6.3024088810 3.6389631194 1.4880700456 
S 4.7403708969 4.5595997529 10.7385623356 
Mo 3.1512568329 7.2774749019 -9.1672481230 
Mo 4.7268384135 6.3678043337 -3.0554959052 
S 3.1512606125 7.2774972547 -4.6232589675 
S 4.7268770050 6.3677884239 -7.6014065489 
S 4.7268774587 6.3677895528 -10.7330757790 
S 3.1512629079 7.2774963749 -1.4877081835 
Mo 3.1509332082 7.2777363792 3.0557870506 
Mo 4.7411470280 6.3780918041 9.1715377996 
S 3.1318604206 7.2684362704 7.6369677983 
S 4.7261054809 6.3676832069 4.6235234364 
S 4.7265224166 6.3673219413 1.4882394457 
S 3.2449760919 7.3368621711 10.7911541351 
Mo 1.5756394905 10.0065304219 -9.1672481230 
Mo 3.1512330605 9.0968514907 -3.0554878870 
S 1.5756499830 10.0065443759 -4.6232632674 
S 3.1512596626 9.0968439439 -7.6014065489 
S 3.1512601163 9.0968450728 -10.7330757790 
S 1.5756503041 10.0065459699 -1.4877044377 
Mo 1.5759842787 10.0060485364 3.0564227594 
Mo 3.1576523471 9.1090850293 9.1711047422 
S 1.5778783893 10.0033770792 7.5950082898 
S 3.1511559640 9.0961378377 4.6253626266 
S 3.1510700716 9.0968566655 1.4875183931 
S 1.5805582678 10.0089025976 10.7380100824 
Mo 9.4537312807 1.8193638619 -9.1672481230 
Mo 11.0293863460 0.9096952246 -3.0554894007 
S 9.4537395970 1.8193770750 -4.6232328036 
S 11.0293514528 0.9096773839 -7.6014065489 
S 11.0293519066 0.9096785128 -10.7330757790 
S 9.4537393632 1.8193794783 -1.4877366147 
Mo 9.4537769098 1.8194530686 3.0557702925 
Mo 11.0214124122 0.9039530352 9.1572850034 
S 9.4509754739 1.8210400433 7.5886484669 
S 11.0297085102 0.9099836017 4.6227924725 
S 11.0298721592 0.9095913677 1.4880634102 
S 9.4543860677 1.8215914147 10.7310776891 
Mo 7.8781139383 4.5484193819 -9.1672481230 
Mo 9.4537539161 3.6387607911 -3.0554933032 
S 7.8781175448 4.5484378232 -4.6232366318 
S 9.4537341104 3.6387329039 -7.6014065489 
S 9.4537345641 3.6387340328 -10.7330757790 
S 7.8781194018 4.5484411585 -1.4877377057 
Mo 7.8784989523 4.5486364116 3.0557280211 
Mo 9.4527866890 3.6391783903 9.1614795215 
S 7.8753889651 4.5442436845 7.5895045495 
S 9.4537867768 3.6388095247 4.6235742808 
S 9.4540072672 3.6388554458 1.4877903058 
S 7.8784783642 4.5498680733 10.7287130098 
Mo 6.3024965959 7.2774749019 -9.1672481230 
Mo 7.8781361655 6.3678242352 -3.0555014130 
S 6.3024973331 7.2774953556 -4.6232392528 
S 7.8781167680 6.3677884239 -7.6014065489 
S 7.8781172217 6.3677895528 -10.7330757790 
S 6.3024989866 7.2774929744 -1.4877349119 
Mo 6.3023714398 7.2773566014 3.0560317264 
Mo 7.8784467336 6.3684024804 9.1552602187 
S 6.3009125091 7.2759805453 7.5852046151 
S 7.8782270814 6.3675963495 4.6235405529 
S 7.8781286013 6.3679289375 1.4877619439 
S 6.3206630015 7.2803055664 10.7348283129 
Mo 4.7268792535 10.0065304219 -9.1672481230 
Mo 6.3025111524 9.0968738021 -3.0554915260 
S 4.7268840634 10.0065452125 -4.6232380477 
S 6.3024994256 9.0968439439 -7.6014065489 
S 6.3024998793 9.0968450728 -10.7330757790 
S 4.7268847312 10.0065459141 -1.4877283294 
Mo 4.7263313201 10.0062259561 3.0560224689 
Mo 6.2949517100 9.0922944257 9.1579519081 
S 4.7222053761 10.0036000666 7.5864199324 
S 6.3027391510 9.0971280445 4.6227578287 
S 6.3025273740 9.0971609214 1.4880907749 
S 4.7334021117 10.0150509648 10.7343189605 
Pd 1.5739422129 6.3750939550 12.1150866347 
H 3.1632777071 1.7950041054 12.0998138719 

