SystemName	siesta
SystemLabel	siesta

%block Geometry.Constraints
atom	3
atom	7
atom	8
atom	21
atom	25
atom	26
atom	38
atom	40
atom	47
atom	51
atom	52
atom	65
atom	69
atom	70
atom	82
atom	84
atom	91
atom	95
atom	96
atom	109
atom	113
atom	114
atom	126
atom	128
atom	136
atom	137
atom	146
atom	147
atom	154
atom	206
atom	215
atom	219
atom	220
atom	233
atom	237
atom	238
atom	252
atom	261
atom	265
atom	266
atom	279
atom	283
atom	284
atom	298
atom	307
atom	311
atom	312
atom	325
atom	329
atom	330
atom	343
atom	349
atom	350
atom	359
atom	360
atom	407
atom	415
atom	423
atom	428
atom	432
atom	433
atom	446
atom	450
atom	451
atom	463
atom	465
atom	472
atom	476
atom	477
atom	490
atom	494
atom	495
atom	507
atom	509
atom	516
atom	520
atom	521
atom	533
atom	537
atom	538
atom	549
atom	551
atom	577
atom	585
atom	596
atom	605
atom	609
atom	610
atom	623
atom	627
atom	628
atom	642
atom	651
atom	655
atom	656
atom	669
atom	673
atom	674
atom	688
atom	696
atom	700
atom	701
atom	713
atom	717
atom	718
%endblock Geometry.Constraints
MD.NumCGsteps	2000
MD.TypeOfRun	CG
MD.UseSaveXV	True
MaxSCFIterations	2000
PartialChargesAtEveryGeometry	True
%block SCF.Mixer.broyden
method	broyden
weight	0.01
weight.linear	0.005
%endblock SCF.Mixer.broyden
%block SCF.Mixers
broyden
%endblock SCF.Mixers
SCFMustConverge	True
Slab.DipoleCorrection	True
%block Slab.DipoleCorrection.Origin
 10.830496386158952 17.246690564938312 7.84498639574289 Ang
%endblock Slab.DipoleCorrection.Origin
SolutionMethod	diagon
WriteCoorCerius	True
WriteCoorStep	True
WriteCoorXmol	True
WriteForces	True
WriteHirshfeldPop	True
WriteMDHistory	True
WriteMDXmol	True
WriteMullikenPop	1
WriteVoronoiPop	True

Spin     	non-polarized
XC.functional	GGA
XC.authors	BLYP

MeshCutoff	2721.1386024367243	eV
PAO.EnergyShift	0.1	eV

NumberOfSpecies	6
NumberOfAtoms	777
%block ChemicalSpecieslabel
    1 14 Si.gga.1
    2 8 O.gga.2
    3 1 H.gga.3
    4 6 C.gga.4
    5 7 N.gga.5
    6 12 Mg.gga.6
%endblock ChemicalSpecieslabel

%block PAO.BasisSizes
    Si.gga.1	DZP
    O.gga.2	DZP
    H.gga.3	DZP
    C.gga.4	DZP
    N.gga.5	DZP
    Mg.gga.6	DZP
%endblock PAO.BasisSizes


LatticeConstant	1.0 Ang
%block LatticeVectors
    34.404763260000003     0.000000000000000     0.000000000000000 
    -12.287415449999999     34.502427988999997     0.000000000000000 
    0.000000000000000     0.000000000000000     36.159325252999999 
%endblock LatticeVectors


AtomicCoordinatesFormat  Ang
%block AtomicCoordinatesAndAtomicSpecies
     0.021862932      5.405451747      5.817250848 1
     1.385291246      1.277216641      6.486795030 1
     3.897332754      2.512208935      5.000000017 1
     0.890920275      4.698062647      7.095308310 2
    -1.126235694      6.508020341      6.444293866 2
     2.943553738      1.791138069      6.231481556 2
    -0.952566958      4.119327718      5.156645179 2
     0.442021421      1.861045543      5.210083925 2
     0.848806097      1.783574930      7.977592664 2
     0.099833238      1.050574470      9.294031406 1
    -0.920229568      3.872445249      9.947964486 1
     1.549225670      5.088466728      8.565257851 1
     1.259937875      0.532958626     10.358062943 2
     4.038319394      2.220120074      9.990383786 2
     0.637282784      4.459683543      9.829514203 2
     1.560865715      6.734560247      8.764246487 2
     3.059200402      4.395036827      8.656353931 2
     3.405154288      4.553514518     11.364524422 2
    -2.435360898     12.305932653      5.817493333 1
    -1.072157952      8.177351936      6.486814267 1
     1.439849664      9.412694533      5.000000017 1
    -1.566397181     11.598039196      7.095472618 2
    -3.582923296     13.408548791      6.444208747 2
     0.486130075      8.691492834      6.231293347 2
    -3.410050048     11.019813316      5.156645179 2
    -2.015461669      8.761531141      5.210083925 2
    -1.608459387      8.683706188      7.977360196 2
    -2.357483213      7.950975295      9.293924410 1
    -3.377704690     10.772497704      9.948360323 1
    -0.908334570     11.988808520      8.565417567 1
    -1.197282016      7.432876555     10.357420681 2
     1.580691812      9.120835286      9.990099249 2
    -1.820344371     11.359978860      9.829442680 2
    -0.897280254     13.635309202      8.764369790 2
     0.601825280     11.295890773      8.657308682 2
     0.947887810     11.453834918     11.364903806 2
    -3.529418483     15.077780260      6.486553848 1
    -1.017633426     16.313180131      5.000000017 1
    -1.971311651     15.592349954      6.231406272 2
    -4.472944759     15.662016739      5.210083925 2
    -4.065913420     15.584273556      7.977320240 2
    -4.814873284     14.851455614      9.293943177 1
    -3.655430969     14.333684992     10.358737133 2
    -0.876938949     16.021399342      9.989980791 2
     4.932091878      5.405350345      5.825462197 1
     6.301080327      1.281254702      6.490510112 1
     8.812298939      2.512208935      5.000000017 1
     5.805744501      4.693486107      7.097403815 2
     3.793981074      6.510508829      6.461686067 2
     7.861308055      1.790923878      6.234403193 2
     3.962399226      4.119327718      5.156645179 2
     5.356987606      1.861045543      5.210083925 2
     5.761253824      1.793302544      7.979067495 2
     5.017408646      1.056792567      9.295080641 1
     3.991250714      3.875303396      9.941947539 1
     6.460880436      5.091042058      8.567947997 1
     6.176977222      0.543650583     10.362264042 2
     8.945306451      2.221247407      9.990981862 2
     5.549142462      4.463539983      9.833241036 2
     6.471032721      6.737821279      8.762120210 2
     7.975360177      4.405451178      8.659393665 2
     8.316148234      4.553040765     11.370334358 2
     2.474619803     12.305614023      5.825566770 1
     3.843627493      8.181830972      6.490481727 1
     6.354815849      9.412694533      5.000000017 1
     3.347965697     11.594245792      7.097752825 2
     1.336238147     13.410987216      6.460919056 2
     5.403814216      8.691388360      6.234290774 2
     1.504916136     11.019813316      5.156645179 2
     2.899504516      8.761531141      5.210083925 2
     3.303882889      8.694050637      7.978772109 2
     2.559936140      7.957262742      9.294888165 1
     1.534036045     10.775646223      9.942502331 1
     4.003281920     11.991258986      8.568178729 1
     3.720377762      7.444441424     10.361143970 2
     6.488234557      9.121888955      9.991294712 2
     3.092079327     11.363658061      9.833438719 2
     4.013470630     13.638337618      8.762377122 2
     5.517547784     11.305528267      8.659306087 2
     5.858756046     11.453687006     11.370351136 2
     1.386052602     15.082072086      6.490420654 1
     3.897332759     16.313180131      5.000000017 1
     2.946099506     15.592126412      6.234379400 2
     0.442021426     15.662016739      5.210083925 2
     0.845852009     15.593947313      7.978966791 2
     0.101942270     14.857708075      9.295281181 1
     1.261548487     14.345442695     10.362327537 2
     4.030803197     16.022085354      9.991375167 2
     9.846089729      5.400118638      5.831955472 1
    11.215321291      1.280331244      6.489332728 1
    13.727265124      2.512208935      5.000000017 1
    10.718195705      4.683983069      7.102003028 2
     8.710218365      6.509630708      6.463535436 2
    12.775563015      1.788423625      6.232421698 2
     8.877365411      4.119327718      5.156645179 2
    10.271953791      1.861045543      5.210083925 2
    10.674668814      1.792097340      7.977579792 2
     9.927834134      1.059497143      9.294858370 1
     8.902743213      3.877724776      9.946152543 1
    11.374992230      5.083746072      8.571760853 1
    11.088240914      0.543887822     10.360388457 2
    13.865895094      2.214021805      9.992784693 2
    10.462158711      4.463238604      9.840460426 2
    11.384511959      6.732665685      8.755431169 2
    12.887141634      4.393122943      8.664274197 2
    13.227130062      4.542256962     11.375709803 2
     7.388595347     12.300306031      5.832046738 1
     8.757813636      8.180747768      6.489315986 1
    11.269782034      9.412694533      5.000000017 1
     8.261136128     11.584616889      7.101760074 2
     6.252930942     13.410160434      6.463559771 2
    10.318261951      8.688467178      6.232295105 2
     6.419882321     11.019813316      5.156645179 2
     7.814470701      8.761531141      5.210083925 2
     8.217062597      8.692532392      7.977499120 2
     7.470550852      7.959942304      9.294764609 1
     6.445202652     10.778358321      9.946119602 1
     8.917417906     11.984126057      8.571596436 1
     8.631180968      7.443998585     10.359904067 2
    11.407977359      9.114208818      9.992486777 2
     8.004574402     11.364267616      9.840604232 2
     8.926647020     13.633627623      8.755104072 2
    10.429301874     11.293230601      8.664473471 2
    10.769488641     11.442603929     11.375898917 2
     6.300373284     15.081300680      6.489376047 1
     8.812298944     16.313180131      5.000000017 1
     7.860627421     15.589072154      6.232441694 2
     5.356987611     15.662016739      5.210083925 2
     5.759729000     15.593107144      7.977720849 2
     5.013092836     14.860098300      9.294787461 1
     6.173905567     14.344614154     10.359936285 2
     8.951168787     16.015342130      9.992431670 2
    14.762607986      5.399504495      5.832761933 1
    16.130495229      1.281470963      6.489160212 1
    13.625657227      6.511250735      6.459238623 2
    13.792331596      4.119327718      5.156645179 2
    15.186919976      1.861045543      5.210083925 2
    15.595971157      1.786866358      7.982087449 2
    14.844371260      1.050394988      9.293526586 1
    13.817486759      3.870091597      9.951109950 1
    16.001019769      0.527525563     10.360026828 2
    15.373567839      4.466751952      9.845711519 2
    12.305021626     12.300090046      5.833074964 1
    13.672954784      8.182003036      6.489414050 1
    11.168006224     13.412033640      6.459432799 2
    11.334848506     11.019813316      5.156645179 2
    12.729436886      8.761531141      5.210083925 2
    13.138689922      8.687619936      7.982004283 2
    12.386713689      7.950626165      9.293454520 1
    11.359604930     10.770161751      9.951286154 1
    13.543676640      7.427949229     10.359742724 2
    12.915768613     11.366884038      9.845621555 2
    11.215540401     15.082574614      6.489345565 1
    10.271953796     15.662016739      5.210083925 2
    10.680997749     15.588156460      7.982090993 2
     9.929085964     14.851438191      9.293467574 1
    11.085915194     14.328807694     10.360201188 2
    -1.492331722      4.549983608     11.377964410 2
    -3.949859634     11.450270369     11.378263049 2
     2.465278561      4.354376233     11.545947111 3
    -1.348621227      6.606916307     10.864047432 3
     0.007960468     11.254948605     11.546630631 3
    -3.806712340     13.506346924     10.863946728 3
     7.377260113      4.349461224     11.552949509 3
     3.566549465      6.620824098     10.870644195 3
     4.919779743     11.249980048     11.552694586 3
     1.108434342     13.521119138     10.870951585 3
    12.288440931      4.333661907     11.554618696 3
     8.474025625      6.623822497     10.874182674 3
     9.830477712     11.234825615     11.554386119 3
     6.017110051     13.524621652     10.874350996 3
    13.376992436      6.611533215     10.877319568 3
    10.920037700     13.511616928     10.876905652 3
    12.662591529     11.945077431     15.090643485 3
    11.638136590     10.177066183     14.300770172 4
    11.750028681     11.713872396     14.483178783 4
    10.897258786     14.838271623     14.386504199 4
     9.752253713     14.901222853     13.328083808 4
     8.343927540     15.240455268     13.883093859 4
    11.231442307     16.234060211     14.973327112 4
     8.352709500     16.230213803     14.396195448 3
     7.600129395     15.288277764     13.051590600 3
    10.710595016      9.936472032     13.721010393 3
    11.923071095     12.186776132     13.483311872 3
     9.616244860     12.208961852     14.499835268 3
    11.503741090      9.698965551     15.303901154 3
    10.033767919     15.673929775     12.572768575 3
     9.711881174     13.925035711     12.783318220 3
    10.505819405     12.344675550     15.164904326 4
    10.662456142     13.837573425     15.564680989 4
     7.975235482     14.472733188     14.605954742 3
     9.753530826     14.156750147     16.131863450 3
    10.274554738     11.767723586     16.096465868 3
    11.835140317     14.523675964     13.858666129 3
    11.517319719     13.953556734     16.271761022 3
    12.864717996      9.551129397     13.592603898 4
    12.766954476      8.441723520     13.509772014 3
    12.987751655      9.958087510     12.558884740 3
     9.062409800     16.887057961     20.131905546 4
     8.091636897     16.445377651     20.463341321 3
     9.265818051     16.526348842     19.096426254 3
     9.859232834     16.481337075     20.803377777 3
    -4.892925847     19.206289695      5.817447772 1
    -4.023755978     18.498961491      7.095593426 2
    -6.040381546     20.309349327      6.444147854 2
    -5.867533138     17.920298914      5.156645179 2
    -5.835187618     17.673248901      9.947771251 1
    -3.365731113     18.889633829      8.565418326 1
    -4.277640124     18.260645492      9.829401856 2
    -3.354463091     20.536148277      8.764342707 2
    -1.855612698     18.196732056      8.656979957 2
    -1.509606567     18.354417226     11.365124233 2
    -7.350993214     26.107024676      5.817917445 1
    -5.986878610     21.978615436      6.486483301 1
    -3.475116516     23.213665728      5.000000017 1
    -6.481480130     25.399567330      7.095645749 2
    -8.498722371     27.209592994      6.444943866 2
    -4.428754099     22.493176159      6.231723534 2
    -8.325016228     24.820784511      5.156645179 2
    -6.930427849     22.562502337      5.210083925 2
    -6.523633873     22.484887848      7.977453813 2
    -7.272782780     21.752033161      9.293796370 1
    -8.292494462     24.573892382      9.948182021 1
    -5.823240933     25.790159415      8.565381552 1
    -6.113144256     21.233776227     10.357896574 2
    -3.334410466     22.921397041      9.990405518 2
    -6.734899114     25.161245121      9.829649656 2
    -5.811718733     27.436263492      8.764338910 2
    -4.313369392     25.096661440      8.656925899 2
    -3.967349460     25.254619317     11.364864898 2
    -9.808554164     33.007415703      5.818137800 1
    -8.444579922     28.879293454      6.486607038 1
    -5.932599606     30.114151326      5.000000017 1
    -8.939073357     32.300032951      7.095818374 2
    -10.956252768     34.109981502      6.444412324 2
    -6.886195820     29.392969915      6.231360278 2
    -10.782499318     31.721270109      5.156645179 2
    -9.387910939     29.462987934      5.210083925 2
    -8.980759739     29.385652157      7.977688920 2
    -9.729459250     28.652672364      9.294041964 1
    -10.749906290     31.474333610      9.948475382 1
    -8.280762849     32.690354951      8.565393955 1
    -8.569517146     28.135051896     10.358213221 2
    -5.791563192     29.822558955      9.990372613 2
    -9.192284868     32.061888947      9.830120703 2
    -8.269731155     34.336857427      8.763809176 2
    -6.770465072     31.997437307      8.657127451 2
    -6.424962389     32.155186341     11.364926008 2
     0.017073516     19.206201817      5.825783003 1
     0.890491390     18.494712620      7.097945518 2
    -1.121389647     20.311435033      6.461361899 2
    -0.952566954     17.920298914      5.156645179 2
    -0.923636772     17.676349048      9.942554075 1
     1.545646763     18.891724193      8.568282760 1
     0.634381632     18.264634870      9.833859216 2
     1.556604049     20.538688519      8.762110845 2
     3.060147870     18.206346330      8.659689412 2
     3.401354311     18.354203553     11.370571491 2
    -2.440590076     26.106415122      5.825841978 1
    -1.071265970     21.982806653      6.490413386 1
     1.439849669     23.213665728      5.000000017 1
    -1.566928255     25.394956598      7.097560132 2
    -3.579165569     27.211953029      6.461513298 2
     0.488803155     22.492318257      6.234232268 2
    -3.410050044     24.820784511      5.156645179 2
    -2.015461664     22.562502337      5.210083925 2
    -1.610949980     22.494804295      7.979220159 2
    -2.354992797     21.758263644      9.295262161 1
    -3.381196246     24.576579811      9.942497594 1
    -0.911883178     25.792041867      8.568152188 1
    -1.194817603     21.245547041     10.361879451 2
     1.573342050     22.922914216      9.990856425 2
    -1.823093183     25.164661344      9.833593047 2
    -0.901691401     27.439229941      8.762232377 2
     0.602545017     25.106665764      8.659437598 2
     0.943920661     25.254207565     11.370538260 2
    -4.897960621     33.007254956      5.825844401 1
    -3.528962180     28.883231147      6.490545403 1
    -1.017633421     30.114151326      5.000000017 1
    -4.024320782     32.295190604      7.097730913 2
    -6.036437072     34.112438247      6.461472257 2
    -1.968543191     29.392811721      6.234363563 2
    -5.867533134     31.721270109      5.156645179 2
    -4.472944754     29.462987934      5.210083925 2
    -4.068208832     29.395326637      7.979312546 2
    -4.812275086     28.658717707      9.295321824 1
    -5.838502974     31.477057093      9.942699472 1
    -3.369051740     32.692690731      8.568148970 1
    -3.652700798     28.145726430     10.361959544 2
    -0.884360560     29.823117481      9.991224527 2
    -4.280531579     32.065732759      9.833718122 2
    -3.358824988     34.339744659      8.762158395 2
    -1.854674129     32.007425656      8.659606751 2
    -1.513181620     32.154806918     11.370802983 2
     4.930944710     19.200752780      5.832183890 1
     5.803122470     18.484887088      7.102088618 2
     3.794903839     20.310319708      6.463168961 2
     3.962399231     17.920298914      5.156645179 2
     3.987605726     17.678352742      9.946345887 1
     6.459887838     18.884849446      8.571711929 1
     5.546926621     18.264521150      9.840591974 2
     6.468871667     20.534142962      8.755383439 2
     7.971656979     18.194311297      8.664359931 2
     8.312056937     18.343463050     11.375925168 2
     2.474373779     26.101284404      5.831391820 1
     3.842731775     21.981431593      6.489246126 1
     6.354815854     23.213665728      5.000000017 1
     3.345897305     25.385491823      7.101505295 2
     1.338185228     27.210752448      6.462007704 2
     5.403128220     22.488958721      6.232099880 2
     1.504916141     24.820784511      5.156645179 2
     2.899504521     22.562502337      5.210083925 2
     3.302534949     22.493069892      7.977800508 2
     2.555674127     21.760587831      9.294982035 1
     1.530151846     24.579192404      9.946116383 1
     4.002476822     25.785179231      8.571378576 1
     3.716358015     21.245005525     10.360351792 2
     6.493183918     22.915424740      9.992630112 2
     3.089693123     25.165359984      9.840513291 2
     4.012024836     27.434408262      8.754635555 2
     5.514257998     25.094251963      8.664255177 2
     5.854316490     25.243724934     11.375749145 2
     0.016451429     33.001981225      5.832102640 1
     1.385388727     28.882020422      6.488909447 1
     3.897332764     30.114151326      5.000000017 1
     0.888663942     32.286158800      7.102051301 2
    -1.119236718     34.111628027      6.463859423 2
     2.945753153     29.390480254      6.232613560 2
    -0.952566949     31.721270109      5.156645179 2
     0.442021431     29.462987934      5.210083925 2
     0.844876368     29.393650337      7.977475472 2
     0.097947673     28.660950117      9.294706826 1
    -0.926983409     31.479571147      9.946489186 1
     1.545331527     32.685635916      8.571645071 1
     1.259170027     28.145359220     10.359707288 2
     4.035957537     29.815720367      9.992644865 2
     0.632283197     32.065361719      9.840489968 2
     1.554360396     34.334741324      8.755734401 2
     3.057000043     31.994732662      8.664446352 2
     3.397176327     32.143796434     11.375749579 2
     9.847311091     19.201083106      5.832389420 1
     8.710353180     20.312232592      6.458997260 2
     8.877365416     17.920298914      5.156645179 2
     8.902178608     17.671286403      9.951486260 1
    10.458099870     18.267706518      9.845620687 2
     7.390526983     26.100624717      5.832757522 1
     8.757986166     21.983015082      6.489407072 1
     6.253821873     27.212737097      6.458650890 2
     6.419882326     24.820784511      5.156645179 2
     7.814470706     22.562502337      5.210083925 2
     8.223620284     22.488448740      7.982097212 2
     7.471847265     21.752063730      9.293534504 1
     6.444717493     24.571537177      9.951376010 1
     8.628980950     21.229331003     10.359791286 2
     8.000854436     25.168385847      9.845816996 2
     4.932589755     33.001905182      5.832337061 1
     6.300643539     28.883459174      6.489242294 1
     3.795310668     34.113122120      6.458964897 2
     3.962399236     31.721270109      5.156645179 2
     5.356987616     29.462987934      5.210083925 2
     5.766697990     29.388701136      7.982159298 2
     5.014407968     28.652318162      9.293373812 1
     3.987504672     31.471615233      9.951381904 1
     6.171382609     28.129016007     10.359535206 2
     5.543367539     32.068626512      9.845677421 2
    -6.407711091     18.351048478     11.377647979 2
    -8.864879822     25.251615122     11.378008994 2
    -11.321918383     32.152008115     11.378575828 2
    -11.178398082     34.208569568     10.864005270 3
    -2.449501315     18.155503828     11.546724392 3
    -6.264368601     20.406672672     10.863455070 3
    -4.907376420     25.055955924     11.546365981 3
    -8.720489309     27.308009410     10.863770813 3
    -7.364898820     31.956043364     11.546493334 3
    -6.264284516     34.222178567     10.871305802 3
     2.462281798     18.151331415     11.552916315 3
    -1.348667489     20.421846874     10.871300631 3
     0.004889322     25.051231886     11.552703806 3
    -3.806476852     27.322175038     10.871367092 3
    -2.452258761     31.952022934     11.553189137 3
    -1.355490811     34.225875779     10.874109379 3
     7.373041423     18.135578883     11.554418699 3
     3.559807788     20.424603653     10.873967490 3
     4.915391369     25.035436433     11.554348694 3
     1.102318873     27.325432136     10.874223642 3
     2.458391919     31.935694004     11.554817319 3
     3.547880280     34.212797150     10.876604879 3
     8.462630448     20.412777877     10.877212283 3
     6.005091071     27.312223502     10.876600467 3
     9.898934842     18.537937697     17.487579882 2
     8.443224552     22.649037575     15.044952772 3
     9.108027906     20.413772613     16.132594261 3
    10.620110729     17.285464899     14.541115133 2
     7.700218742     22.323876963     24.215087336 4
     9.016376951     21.315520046     22.218436936 4
     9.005795583     18.435736070     20.191384428 4
     6.822190706     22.564751161     23.566588413 3
     7.729514726     23.079103797     25.036959703 3
     7.504289171     21.327899416     24.682406305 3
     8.769656357     20.296774914     22.607764179 3
     8.180796136     21.585313546     21.522309077 3
     9.500209824     21.127209220     19.422018411 3
     8.694619363     18.741985969     21.217958243 3
     8.219175632     18.802791604     19.486785136 3
     9.020804586     22.318018534     23.404629088 4
    10.352174482     19.131466311     19.841147130 4
    18.642231274      2.512208935      5.000000017 1
    15.625116159      4.680184213      7.108429264 2
    17.688779646      1.795033566      6.232478505 2
    16.284353842      5.086466622      8.574349427 1
    18.778948903      2.219811899      9.991507618 2
    16.292176350      6.736167785      8.752060035 2
    17.797893729      4.399500406      8.666023043 2
    18.137814036      4.544603990     11.374671561 2
    16.184748184      9.412694533      5.000000017 1
    13.166917455     11.580164834      7.108592740 2
    15.231250206      8.695573574      6.232482518 2
    13.826466081     11.986516627      8.574360057 1
    16.321972040      9.120128158      9.991571331 2
    13.834313222     13.636313913      8.752181133 2
    15.340060499     11.299523844      8.665919229 2
    15.680654975     11.445120295     11.374646719 2
    13.727265094     16.313180131      5.000000017 1
    12.773749614     15.596151983      6.232634749 2
    13.862232122     16.020479024      9.990041900 2
    19.678240970      5.401746739      5.828074998 1
    21.044125809      1.282169948      6.490309536 1
    23.557197459      2.512208935      5.000000017 1
    20.541714966      4.682354934      7.103819456 2
    18.539204304      6.512414019      6.454663673 2
    22.601043042      1.801787692      6.237696042 2
    18.707297781      4.119327718      5.156645179 2
    20.101886126      1.861045543      5.210083925 2
    20.509107837      1.786470167      7.983354653 2
    19.752635478      1.051890910      9.292650301 1
    18.731443626      3.875158486      9.950233231 1
    21.199911929      5.086082024      8.570808308 1
    20.903605410      0.520818222     10.359734986 2
    23.696218231      2.220500843      9.990296209 2
    20.289479612      4.467637526      9.843064512 2
    21.203628378      6.736156537      8.747469862 2
    22.716328636      4.403340043      8.661582063 2
    23.051854239      4.548004584     11.371645857 2
    17.221387173     12.302038364      5.826979732 1
    18.586597882      8.182789173      6.490528083 1
    21.099714369      9.412694533      5.000000017 1
    18.084934586     11.583035505      7.103370393 2
    16.081909666     13.412783930      6.454008105 2
    20.143742035      8.701743850      6.237755741 2
    16.249814691     11.019813316      5.156645179 2
    17.644403036      8.761531141      5.210083925 2
    18.051841285      8.687765053      7.983461865 2
    17.295709534      7.952381545      9.292591831 1
    16.273846281     10.775539645      9.949989047 1
    18.742568706     11.986606713      8.570680918 1
    18.447071584      7.421199864     10.359245425 2
    21.239282083      9.120841600      9.991287987 2
    17.831652811     11.368188644      9.842627491 2
    18.746165897     13.636618466      8.747124251 2
    20.259079413     11.303741352      8.661840096 2
    20.594204895     11.448497358     11.372121967 2
    16.129095450     15.083317106      6.490302413 1
    18.642231279     16.313180131      5.000000017 1
    17.685726558     15.602854321      6.237702768 2
    15.186919946     15.662016739      5.210083925 2
    15.593853757     15.587939370      7.983344058 2
    14.837154148     14.853199574      9.292561602 1
    15.988396352     14.323005835     10.360008640 2
    18.782436769     16.021133363      9.991633561 2
    24.590294517      5.402532152      5.827038744 1
    25.958601793      1.278941452      6.488732122 1
    28.472163644      2.512208935      5.000000017 1
    25.465147519      4.692369263      7.099672126 2
    23.446345798      6.509739114      6.449291410 2
    27.516749038      1.792715141      6.232137269 2
    23.622263932      4.119327718      5.156645179 2
    25.016852311      1.861045543      5.210083925 2
    25.430737116      1.783803163      7.983828376 2
    24.666447165      1.049611024      9.290924163 1
    23.647191053      3.876910899      9.947413129 1
    26.114120435      5.094236845      8.570983572 1
    25.810206337      0.513943337     10.364025941 2
    28.600326467      2.226931026      9.986248461 2
    25.205092149      4.468337373      9.839392280 2
    26.106002577      6.743199793      8.754606375 2
    27.631135500      4.414507479      8.664860882 2
    27.967767928      4.553865822     11.376303033 2
    22.132590174     12.303414597      5.826801321 1
    23.501324148      8.179650074      6.488916715 1
    26.014680554      9.412694533      5.000000017 1
    23.006806868     11.593464898      7.099592431 2
    20.988466653     13.410303412      6.449215078 2
    25.059372956      8.693145259      6.232224775 2
    21.164780842     11.019813316      5.156645179 2
    22.559369221      8.761531141      5.210083925 2
    22.973032798      8.684941547      7.983999554 2
    22.209304021      7.950431675      9.291013296 1
    21.189783103     10.777288297      9.947667148 1
    23.655982059     11.995401623      8.570867139 1
    23.353515805      7.414339643     10.363868575 2
    26.141730361      9.127451851      9.984950884 2
    22.747431995     11.369000486      9.839891640 2
    23.647684007     13.644119432      8.754532357 2
    25.173063838     11.315793878      8.664960646 2
    25.510063952     11.454222277     11.376099926 2
    21.043674102     15.080123181      6.488937217 1
    23.557197464     16.313180131      5.000000017 1
    22.601823087     15.593558401      6.232114670 2
    20.101886131     15.662016739      5.210083925 2
    20.515959380     15.585382568      7.984107237 2
    19.752033643     14.850459874      9.291221175 1
    20.895902549     14.314310844     10.363798896 2
    23.684624597     16.028066005      9.985563314 2
    29.506164438      5.401258702      5.832119671 1
    30.871421907      1.276722601      6.489196480 1
    33.387129829      2.512208935      5.000000017 1
    30.374602719      4.692649216      7.109155488 2
    28.356677898      6.507757916      6.445774662 2
    32.429570425      1.789017239      6.226863902 2