&CONTROL
   calculation      = 'vc-relax'
   restart_mode     = 'from_scratch'
   wf_collect       = .true.
   nstep            = 1000
   tstress          = .true.
   tprnfor          = .true.
   outdir           = './outdir'
   pseudo_dir       = './pseudo'
/
&SYSTEM
   ecutwfc          = 123.2
   ecutrho          = 862.4000000000001
   nosym            = .true.
   occupations      = 'smearing'
   degauss          = 0.01
   smearing         = 'gaussian'
   vdw_corr         = 'dft-d3'
   dftd3_version    = 4
   ntyp             = 1
   nat              = 128
   ibrav            = 0
/
&ELECTRONS
   electron_maxstep = 1000
   conv_thr         = 1e-06
   mixing_beta      = 0.2
   diagonalization  = 'david'
/
&IONS
/
&CELL
   cell_dofree      = 'all'
/

ATOMIC_SPECIES
S 32.06 S.pbe-n-kjpaw_psl.1.0.0.UPF

K_POINTS automatic
4 4 4  0 0 0

CELL_PARAMETERS angstrom
10.76824315000000 0.00000000000000 0.00000000000000
0.00000000000000 13.13494861000000 0.00000000000000
0.00000000000000 0.00000000000000 24.89789807000000

ATOMIC_POSITIONS angstrom
S 2.8980090372 10.8537938099 8.1532780811 
S 8.2821306122 2.2811548001 4.2956709539 
S 2.4861125378 10.8537938099 4.2956709539 
S 7.8702341128 2.2811548001 8.1532780811 
S 5.1781733253 12.1323662576 22.9690945064 
S 10.5622949003 7.5700566574 1.9288035636 
S 5.5900698247 12.1323662576 1.9288035636 
S 0.2059482497 7.5700566574 22.9690945064 
S 9.8301888614 11.2294195833 21.8950596856 
S 9.8301888614 1.9055290267 3.0028383844 
S 0.9380542886 11.2294195833 3.0028383844 
S 0.9380542886 1.9055290267 21.8950596856 
S 9.0142366511 11.7567404842 9.2273129019 
S 9.0142366511 7.9456824308 3.2216361331 
S 7.1381280739 11.7567404842 3.2216361331 
S 7.1381280739 7.9456824308 9.2273129019 
S 9.0456274797 11.8602818392 23.6801363979 
S 9.0456274797 1.2746667708 1.2177616721 
S 1.7226156703 11.8602818392 1.2177616721 
S 1.7226156703 1.2746667708 23.6801363979 
S 9.7987980328 11.1258782283 7.4422361896 
S 9.7987980328 8.5765446867 5.0067128454 
S 6.3535666922 11.1258782283 5.0067128454 
S 6.3535666922 8.5765446867 7.4422361896 
S 9.0075694933 10.2807094346 0.0880369757 
S 3.6234479183 9.4217134804 24.8098610943 
S 1.7606736567 10.2807094346 24.8098610943 
S 7.1447952317 9.4217134804 0.0880369757 
S 9.8368560192 12.7054506329 6.1364375418 
S 4.4527344442 0.4294979771 6.3125114932 
S 6.3155087058 12.7054506329 6.3125114932 
S 0.9313871308 0.4294979771 6.1364375418 
S 2.8980090372 4.2863195049 20.6022271161 
S 8.2821306122 8.8486291051 16.7446199889 
S 2.4861125378 4.2863195049 16.7446199889 
S 7.8702341128 8.8486291051 20.6022271161 
S 5.1781733253 5.5648919526 10.5201454714 
S 10.5622949003 1.0025823524 14.3777525986 
S 5.5900698247 5.5648919526 14.3777525986 
S 0.2059482497 1.0025823524 10.5201454714 
S 9.8301888614 4.6619452783 9.4461106506 
S 9.8301888614 8.4730033317 15.4517874194 
S 0.9380542886 4.6619452783 15.4517874194 
S 0.9380542886 8.4730033317 9.4461106506 
S 9.0142366511 5.1892661792 21.6762619369 
S 9.0142366511 1.3782081258 15.6705851681 
S 7.1381280739 5.1892661792 15.6705851681 
S 7.1381280739 1.3782081258 21.6762619369 
S 9.0456274797 5.2928075342 11.2311873629 
S 9.0456274797 7.8421410758 13.6667107071 
S 1.7226156703 5.2928075342 13.6667107071 
S 1.7226156703 7.8421410758 11.2311873629 
S 9.7987980328 4.5584039233 19.8911852246 
S 9.7987980328 2.0090703817 17.4556618804 
S 6.3535666922 4.5584039233 17.4556618804 
S 6.3535666922 2.0090703817 19.8911852246 
S 9.0075694933 3.7132351296 12.5369860107 
S 3.6234479183 2.8542391754 12.3609120593 
S 1.7606736567 3.7132351296 12.3609120593 
S 7.1447952317 2.8542391754 12.5369860107 
S 9.8368560192 6.1379763279 18.5853865768 
S 4.4527344442 6.9969722821 18.7614605282 
S 6.3155087058 6.1379763279 18.7614605282 
S 0.9313871308 6.9969722821 18.5853865768 
S 8.2821306122 10.8537938099 20.6022271161 
S 2.8980090372 2.2811548001 16.7446199889 
S 7.8702341128 10.8537938099 16.7446199889 
S 2.4861125378 2.2811548001 20.6022271161 
S 10.5622949003 12.1323662576 10.5201454714 
S 5.1781733253 7.5700566574 14.3777525986 
S 0.2059482497 12.1323662576 14.3777525986 
S 5.5900698247 7.5700566574 10.5201454714 
S 4.4460672864 11.2294195833 9.4461106506 
S 4.4460672864 1.9055290267 15.4517874194 
S 6.3221758636 11.2294195833 15.4517874194 
S 6.3221758636 1.9055290267 9.4461106506 
S 3.6301150761 11.7567404842 21.6762619369 
S 3.6301150761 7.9456824308 15.6705851681 
S 1.7540064989 11.7567404842 15.6705851681 
S 1.7540064989 7.9456824308 21.6762619369 
S 3.6615059047 11.8602818392 11.2311873629 
S 3.6615059047 1.2746667708 13.6667107071 
S 7.1067372453 11.8602818392 13.6667107071 
S 7.1067372453 1.2746667708 11.2311873629 
S 4.4146764578 11.1258782283 19.8911852246 
S 4.4146764578 8.5765446867 17.4556618804 
S 0.9694451172 11.1258782283 17.4556618804 
S 0.9694451172 8.5765446867 19.8911852246 
S 3.6234479183 10.2807094346 12.5369860107 
S 9.0075694933 9.4217134804 12.3609120593 
S 7.1447952317 10.2807094346 12.3609120593 
S 1.7606736567 9.4217134804 12.5369860107 
S 4.4527344442 12.7054506329 18.5853865768 
S 9.8368560192 0.4294979771 18.7614605282 
S 0.9313871308 12.7054506329 18.7614605282 
S 6.3155087058 0.4294979771 18.5853865768 
S 8.2821306122 4.2863195049 8.1532780811 
S 2.8980090372 8.8486291051 4.2956709539 
S 7.8702341128 4.2863195049 4.2956709539 
S 2.4861125378 8.8486291051 8.1532780811 
S 10.5622949003 5.5648919526 22.9690945064 
S 5.1781733253 1.0025823524 1.9288035636 
S 0.2059482497 5.5648919526 1.9288035636 
S 5.5900698247 1.0025823524 22.9690945064 
S 4.4460672864 4.6619452783 21.8950596856 
S 4.4460672864 8.4730033317 3.0028383844 
S 6.3221758636 4.6619452783 3.0028383844 
S 6.3221758636 8.4730033317 21.8950596856 
S 3.6301150761 5.1892661792 9.2273129019 
S 3.6301150761 1.3782081258 3.2216361331 
S 1.7540064989 5.1892661792 3.2216361331 
S 1.7540064989 1.3782081258 9.2273129019 
S 3.6615059047 5.2928075342 23.6801363979 
S 3.6615059047 7.8421410758 1.2177616721 
S 7.1067372453 5.2928075342 1.2177616721 
S 7.1067372453 7.8421410758 23.6801363979 
S 4.4146764578 4.5584039233 7.4422361896 
S 4.4146764578 2.0090703817 5.0067128454 
S 0.9694451172 4.5584039233 5.0067128454 
S 0.9694451172 2.0090703817 7.4422361896 
S 3.6234479183 3.7132351296 0.0880369757 
S 9.0075694933 2.8542391754 24.8098610943 
S 7.1447952317 3.7132351296 24.8098610943 
S 1.7606736567 2.8542391754 0.0880369757 
S 4.4527344442 6.1379763279 6.1364375418 
S 9.8368560192 6.9969722821 6.3125114932 
S 0.9313871308 6.1379763279 6.3125114932 
S 6.3155087058 6.9969722821 6.1364375418 

