&CONTROL
   calculation      = 'nscf'
   verbosity        = 'high'
   restart_mode     = 'from_scratch'
   wf_collect       = .true.
   outdir           = './outdir'
   pseudo_dir       = './pseudo'
/
&SYSTEM
   nbnd             = 1249
   ecutwfc          = 77.0
   ecutrho          = 539.0
   occupations      = 'tetrahedra'
   assume_isolated  = 'esm'
   esm_bc           = 'bc1'
   vdw_corr         = 'dft-d3'
   dftd3_version    = 4
   ntyp             = 3
   nat              = 145
   ibrav            = 0
/
&ELECTRONS
   electron_maxstep = 1000
   conv_thr         = 1e-06
   mixing_beta      = 0.2
   diagonalization  = 'david'
/
&IONS
/
&CELL
/

ATOMIC_SPECIES
Mo 95.95 Mo.pbe-spn-kjpaw_psl.1.0.0.UPF
S 32.06 S.pbe-n-kjpaw_psl.1.0.0.UPF
H 1.008 H.pbe-kjpaw_psl.1.0.0.UPF

K_POINTS automatic
2 2 1  0 0 0

CELL_PARAMETERS angstrom
12.61532217525308 0.00000000000000 0.00000000000000
-6.30767370294872 10.92519700214573 0.00000000000000
0.00000000000000 0.00000000000000 30.30125956094956

ATOMIC_POSITIONS angstrom
Mo 1.5768955964 2.7385889763 6.0885467539 
Mo 1.5769197498 0.9104407117 -6.0872367793 
Mo 0.0005148036 1.8218303080 -0.0012177862 
S 0.0000044503 0.0000077495 -7.6506323570 
S 1.5768948219 0.9100971309 -1.5664469934 
S 0.0059112903 1.8182311936 4.5192000983 
S 0.0000053241 0.0000068460 -4.5222282367 
S 1.5768938911 0.9106889624 1.5663481262 
S -0.0094592980 1.8074902349 7.6560365497 
Mo 0.0063113094 5.4589189663 6.0885507376 
Mo 0.0000011799 3.6417399547 -6.0872367793 
Mo -1.5758360579 4.5521471211 -0.0012160315 
S -1.5769141197 2.7313069925 -7.6506323570 
S 0.0010869590 3.6423757065 -1.5674448995 
S -1.5762376872 4.5586058835 4.5192011671 
S -1.5769132459 2.7313060890 -4.5222282367 
S 0.0004164748 3.6419856324 1.5680310282 
S -1.5932345171 4.5506579800 7.6560413807 
Mo -1.5860762492 8.1997831677 6.0845696236 
Mo -1.5769173901 6.3730391977 -6.0872367793 
Mo -3.1542886994 7.2837130939 -0.0007382871 
S -3.1538326896 5.4626062355 -7.6506323570 
S -1.5772321319 6.3731999833 -1.5664468647 
S -3.1565994273 7.2850294850 4.5161408662 
S -3.1538318159 5.4626053320 -4.5222282367 
S -1.5767196521 6.3729027662 1.5663518549 
S -3.1585762228 7.2861702631 7.6557303920 
Mo 3.1543511096 -0.0108678954 6.0845696817 
Mo -3.1538359601 9.1043384407 -6.0872367793 
Mo -4.7307773559 10.0142680800 -0.0007386411 
S -4.7307512596 8.1939054785 -7.6506323570 
S -3.1537775167 9.1043756686 -1.5665819879 
S -4.7307778335 10.0115799880 4.5161437208 
S -4.7307503859 8.1939045750 -4.5222282367 
S -3.1539967360 9.1042506031 1.5666338807 
S -4.7307755927 10.0092980457 7.6557301341 
Mo 4.7293425129 2.7320776853 6.0824850652 
Mo 4.7307503218 0.9104407117 -6.0872367793 
Mo 3.1532715437 1.8218305208 -0.0012172525 
S 3.1538350223 0.0000077495 -7.6506323570 
S 4.7306510194 0.9107423644 -1.5663089698 
S 3.1478742981 1.8182298819 4.5192012104 
S 3.1538358961 0.0000068460 -4.5222282367 
S 4.7302487639 0.9109272334 1.5659761006 
S 3.1632470061 1.8074903325 7.6560331153 
Mo 3.1474763062 5.4589199616 6.0885489736 
Mo 3.1538317519 3.6417399547 -6.0872367793 
Mo 1.5768909474 4.5521630673 0.0005108845 
S 1.5769164523 2.7313069925 -7.6506323570 
S 3.1526942119 3.6423744030 -1.5674458595 
S 1.5768929518 4.5521474943 4.4953288628 
S 1.5769173261 2.7313060890 -4.5222282367 
S 3.1533644268 3.6419865991 1.5680305179 
S 1.5769026894 4.5521319049 7.6115872347 
Mo 1.5768876093 8.1922851175 6.0824887437 
Mo 1.5769131819 6.3730391977 -6.0872367793 
Mo 0.0005386762 7.2825181343 -0.0012158038 
S -0.0000021176 5.4626062355 -7.6506323570 
S 1.5768864886 6.3717472926 -1.5674452907 
S -0.0052670817 7.2796120550 4.5192010998 
S -0.0000012439 5.4626053320 -4.5222282367 
S 1.5768882594 6.3725215136 1.5680318892 
S -0.0068836102 7.2983036930 7.6560423997 
Mo 6.3073804807 -0.0001670537 6.0835821862 
Mo -0.0000053881 9.1043384407 -6.0872367793 
Mo -1.5769744763 10.0147494128 -0.0004678079 
S -1.5769206876 8.1939054785 -7.6506323570 
S 0.0001999392 9.1041105364 -1.5663089160 
S -1.5766198196 10.0149339236 4.5141260090 
S -1.5769198139 8.1939045750 -4.5222282367 
S 0.0001601434 9.1036712028 1.5659778196 
S -1.5746862645 10.0160516809 7.6570640495 
Mo 7.8845533735 2.7315844272 6.0835807028 
Mo 7.8845808939 0.9104407117 -6.0872367793 
Mo 6.3078447332 1.8207473228 -0.0005303158 
S 6.3076655943 0.0000077495 -7.6506323570 
S 7.8845536830 0.9104331527 -1.5667427544 
S 6.3055277716 1.8220688637 4.5168897692 
S 6.3076664681 0.0000068460 -4.5222282367 
S 7.8845554896 0.9104331809 1.5676079085 
S 6.3065689708 1.8214680721 7.6521491769 
Mo 6.3173080398 5.4675375453 6.0845693322 
Mo 6.3076623239 3.6417399547 -6.0872367793 
Mo 4.7296156830 4.5521464784 -0.0012182049 
S 4.7307470244 2.7313069925 -7.6506323570 
S 6.3073316541 3.6416428736 -1.5663095757 
S 4.7300211052 4.5586019427 4.5191997339 
S 4.7307478981 2.7313060890 -4.5222282367 
S 6.3069700037 3.6418973133 1.5659768293 
S 4.7470131359 4.5506552308 7.6560382849 
Mo 4.7398471801 8.1997776393 6.0845716144 
Mo 4.7307437539 6.3730391977 -6.0872367793 
Mo 3.1532349257 7.2825188599 -0.0012180615 
S 3.1538284544 5.4626062355 -7.6506323570 
S 4.7310077007 6.3731991676 -1.5664495719 
S 3.1590375043 7.2796163662 4.5191988355 
S 3.1538293281 5.4626053320 -4.5222282367 
S 4.7304943256 6.3729027098 1.5663484470 
S 3.1606550328 7.2983016492 7.6560426081 
Mo 9.4617353204 -0.0001685617 6.0835834130 
Mo 3.1538251839 9.1043384407 -6.0872367793 
Mo 1.5768839050 10.0150046145 -0.0005307481 
S 1.5769098844 8.1939054785 -7.6506323570 
S 3.1535669615 9.1041110069 -1.5663118020 
S 1.5768846278 10.0122997900 4.5168901567 
S 1.5769107581 8.1939045750 -4.5222282367 
S 3.1536094953 9.1036714014 1.5659756100 
S 1.5768839532 10.0135040660 7.6521526468 
Mo -1.5755536312 2.7320787997 6.0824864085 
Mo 11.0384114659 0.9104407117 -6.0872367793 
Mo 9.4612624343 1.8207467276 -0.0005318118 
S 9.4614961663 0.0000077495 -7.6506323570 
S 11.0384593967 0.9107439735 -1.5663108046 
S 9.4635854980 1.8220705560 4.5168897377 
S 9.4614970401 0.0000068460 -4.5222282367 
S 11.0388599777 0.9109266580 1.5659736162 
S 9.4625428012 1.8214696842 7.6521499596 
Mo -3.1635332337 5.4675379165 6.0845697649 
Mo 9.4614928959 3.6417399547 -6.0872367793 
Mo 7.8845503315 4.5521961941 -0.0004674015 
S 7.8845775964 2.7313069925 -7.6506323570 
S 9.4617727559 3.6416446946 -1.5663094391 
S 7.8845521620 4.5517730561 4.5141226780 
S 7.8845784701 2.7313060890 -4.5222282367 
S 9.4621328723 3.6418964822 1.5659772394 
S 7.8845509689 4.5495376486 7.6570668923 
Mo -4.7307767037 8.1938847574 6.0844631777 
Mo 7.8845743259 6.3730391977 -6.0872367793 
Mo 6.3080614314 7.2837126148 -0.0007398378 
S 6.3076590264 5.4626062355 -7.6506323570 
S 7.8845500490 6.3729363703 -1.5665825040 
S 6.3103735768 7.2850305132 4.5161414183 
S 6.3076599001 5.4626053320 -4.5222282367 
S 7.8845479614 6.3731886634 1.5666348710 
S 6.3123501691 7.2861683742 7.6557306872 
Mo -0.0005570887 -0.0108681261 6.0845721075 
Mo 6.3076557559 9.1043384407 -6.0872367793 
Mo 4.7307410321 10.0147489411 -0.0004707891 
S 4.7307404564 8.1939054785 -7.6506323570 
S 6.3075485991 9.1043761777 -1.5665838246 
S 4.7303895266 10.0149337777 4.5141296361 
S 4.7307413301 8.1939045750 -4.5222282367 
S 6.3077642527 9.1042505693 1.5666310237 
S 4.7284547798 10.0160509553 7.6570643277 
H 1.5770079693 4.5519928102 9.0119375947 

