&CONTROL
   calculation      = 'relax'
   restart_mode     = 'from_scratch'
   wf_collect       = .true.
   nstep            = 9999
   tstress          = .false.
   tprnfor          = .true.
   outdir           = '/scratch/calc/outdir'
   pseudo_dir       = './pseudo'
/
&SYSTEM
   ecutwfc          = 36
   ecutrho          = 400
   nosym            = .true.
   occupations      = 'smearing'
   degauss          = 0.01
   smearing         = 'gaussian'
   vdw_corr         = 'dft-d3'
   dftd3_version    = 4
   ntyp             = 4
   nat              = 72
   ibrav            = 0
/
&ELECTRONS
   electron_maxstep = 9999
   conv_thr         = 1e-06
   mixing_beta      = 0.2
   diagonalization  = 'david'
/
&IONS
/
&CELL
/

ATOMIC_SPECIES
C 12.011 C.pbe-n-kjpaw_psl.1.0.0.UPF
H 1.008 H.pbe-kjpaw_psl.1.0.0.UPF
O 15.999 O.pbe-n-kjpaw_psl.1.0.0.UPF
N 14.007 N.pbe-n-kjpaw_psl.1.0.0.UPF

K_POINTS automatic
2 2 2  0 0 0

CELL_PARAMETERS angstrom
7.05000000000000 0.00000000000000 0.00000000000000
0.00000000000000 28.40000000000000 0.00000000000000
-1.33387855897011 0.00000000000000 3.66480122106504

ATOMIC_POSITIONS angstrom
C 4.8853270989 28.3403600000 0.1080016920 
C 1.4977336216 14.1403600000 1.7243989185 
C 0.8307943422 0.0596400000 3.5567995291 
C 4.2183878194 14.2596400000 1.9404023025 
H 5.8055645645 28.2693600000 0.2180190246 
H 0.5774961560 14.0693600000 1.6143815859 
H -0.0894431235 0.1306400000 3.4467821964 
H 5.1386252850 14.3306400000 2.0504196352 
O -0.5278014685 26.2532440000 2.4453386148 
O 5.5769836300 12.0532440000 3.0518632168 
O 6.2439229095 2.1467560000 1.2194626063 
O 0.1391378110 16.3467560000 0.6129380042 
N 3.5152043487 26.1617960000 2.7983322684 
N 1.5339778128 11.9617960000 2.6988695632 
N 2.2009170923 2.2382040000 0.8664689527 
N 4.1821436282 16.4382040000 0.9659316578 
H 4.3702243592 26.1328280000 2.8789212472 
H 0.6789578023 11.9328280000 2.6182805844 
H 1.3458970818 2.2671720000 0.7858799738 
H 5.0371636387 16.4671720000 1.0465206367 
C 0.8950761864 24.0022600000 1.4517377077 
C 5.4879845341 9.8022600000 0.3806629028 
C 4.8210452546 4.3977400000 2.2130635134 
C 0.2281369070 18.5977400000 3.2841383182 
H -0.0299900949 23.9968640000 1.3617668377 
H 6.4130508155 9.7968640000 0.4706337728 
H 5.7461115360 4.4031360000 2.3030343833 
H -0.6969293744 18.6031360000 3.1941674483 
C 1.5961056090 22.9142560000 0.9985483887 
C 4.7869551115 8.7142560000 0.8338522218 
C 4.1200158320 5.4857440000 2.6662528324 
C 0.9291663296 19.6857440000 2.8309489992 
H 1.1619634747 22.1923280000 0.6039958892 
H 5.2210972458 7.9923280000 1.2284047213 
H 4.5541579663 6.2076720000 3.0608053318 
H 0.4950241952 20.4076720000 2.4363964998 
C 3.0435027516 22.9267520000 1.1555484730 
C 3.3395579689 8.7267520000 0.6768521375 
C 2.6726186895 5.4732480000 2.5092527481 
C 2.3765634721 19.6732480000 2.9879490835 
H 3.5606498991 22.2306680000 0.8195961451 
H 2.8224108214 8.0306680000 1.0128044655 
H 2.1554715420 6.1693320000 2.8452050760 
H 2.8937106196 20.3693320000 2.6519967556 
C 3.6323229756 23.9767000000 1.8026790726 
C 2.7507377449 9.7767000000 0.0297215379 
C 2.0837984654 4.4233000000 1.8621221484 
C 2.9653836961 18.6233000000 3.6350796832 
H 4.5504864665 23.9491520000 1.9472554808 
H 0.4986956951 9.7491520000 3.5499463508 
H 1.1656349746 4.4508480000 1.7175457403 
H 5.2174257460 18.6508480000 0.1148548703 
C 2.9257832049 25.0689640000 2.2526067185 
C 2.1233989566 10.8689640000 3.2445951131 
C 2.7903382361 3.3310360000 1.4121945025 
C 3.5927224844 17.5310360000 0.4202061080 
C 1.4930191310 25.1246280000 2.0391320474 
C 3.5561630305 10.9246280000 3.4580697842 
C 4.2231023100 3.2753720000 1.6256691737 
C 2.1599584105 17.4753720000 0.2067314369 
C 2.9091161858 27.3009200000 3.2273705473 
C 2.1400659757 13.1009200000 2.2698312843 
C 2.8070052552 1.0990800000 0.4374306737 
C 3.5760554653 15.2990800000 1.3949699368 
C 1.4504705708 27.3335800000 3.1037934501 
C 3.5987115907 13.1335800000 2.3934083815 
C 4.2656508702 1.0664200000 0.5610077709 
C 2.1174098503 15.2664200000 1.2713928396 
C 0.7689144509 26.2396120000 2.5231789927 
C 4.2802677106 12.0396120000 2.9740228389 
C 4.9472069901 2.1603880000 1.1416222284 
C 1.4358537304 16.3603880000 0.6907783822 

