&CONTROL
   calculation      = 'relax'
   restart_mode     = 'restart'
   wf_collect       = .true.
   nstep            = 1000
   tstress          = .true.
   tprnfor          = .true.
   outdir           = './outdir'
   pseudo_dir       = './pseudo'
/
&SYSTEM
   ecutwfc          = 77.0
   ecutrho          = 539.0
   nosym            = .false.
   occupations      = 'smearing'
   degauss          = 0.01
   smearing         = 'gaussian'
   assume_isolated  = 'esm'
   esm_bc           = 'bc1'
   vdw_corr         = 'dft-d3'
   dftd3_version    = 4
   ntyp             = 2
   nat              = 144
   ibrav            = 0
/
&ELECTRONS
   electron_maxstep = 1000
   conv_thr         = 1e-06
   mixing_beta      = 0.2
   diagonalization  = 'david'
/
&IONS
/
&CELL
/

ATOMIC_SPECIES
Mo 95.95 Mo.pbe-spn-kjpaw_psl.1.0.0.UPF
C 12.011 C.pbe-n-kjpaw_psl.1.0.0.UPF

K_POINTS automatic
2 2 1  0 0 0

CELL_PARAMETERS angstrom
15.57256841700128 0.00000000000000 0.00000000000000
-0.00000949207236 15.29519024596196 0.00000000000000
0.00000000000000 0.00000000000000 21.51436070435722

ATOMIC_POSITIONS angstrom
Mo 4.7791909270 5.5990382523 -2.2821140517  0 0 0
Mo 0.4116479709 0.5945370910 -3.2571756197  0 0 0
Mo 2.1837751964 4.4183180273 -3.2571803522  0 0 0
Mo 3.0070779426 1.7751983448 -2.2821282600  0 0 0
Mo 0.4116515803 2.9387717252 -1.3699376609  0 0 0
Mo 4.7791996562 0.3436665209 -0.4561225132  0 0 0
Mo 3.0070766482 4.1674802144 -0.4560880931  0 0 0
Mo 2.1837803594 6.7625851270 -1.3699242977  0 0 0
C 3.8931474012 3.6771840485 -2.3146226317  0 0 0
C 1.2976988819 2.5163437255 -3.2246966173  0 0 0
C 1.2977044334 6.3401623894 -3.2246696625  0 0 0
C 3.8931471683 7.5009940463 -2.3146194733  0 0 0
Mo 4.7791907872 2.6879444316 1.4311543936 
Mo 0.4116430851 5.3310383932 0.4560928255 
Mo 2.1837750566 1.5072242065 0.4560880931 
Mo 3.0070730568 6.5116996470 1.4311401853 
Mo 0.4116514405 0.0276779044 2.3433307844 
Mo 4.7791947704 5.0801678231 3.2571459321 
Mo 3.0070765084 1.2563863936 3.2571803522 
Mo 2.1837802196 3.8514913063 2.3433441476 
C 3.8931472614 0.7660902277 1.3986458136 
C 1.2976939961 7.2528450277 0.4885718280 
C 1.2977042936 3.4290685687 0.4885987828 
C 3.8931470285 4.5899002255 1.3986489720 
Mo 4.7791861810 13.2466333753 -2.2821140517  0 0 0
Mo 0.4116432249 8.2421322140 -3.2571756197  0 0 0
Mo 2.1837704504 12.0659131503 -3.2571803522  0 0 0
Mo 3.0070731966 9.4227934677 -2.2821282600  0 0 0
Mo 0.4116468343 10.5863668482 -1.3699376609  0 0 0
Mo 4.7791949102 7.9912616439 -0.4561225132  0 0 0
Mo 3.0070719022 11.8150753374 -0.4560880931  0 0 0
Mo 2.1837756133 14.4101802500 -1.3699242977  0 0 0
C 3.8931426552 11.3247791715 -2.3146226317  0 0 0
C 1.2976941359 10.1639388485 -3.2246966173  0 0 0
C 1.2976996874 13.9877575124 -3.2246696625  0 0 0
C 3.8931424222 15.1485891692 -2.3146194733  0 0 0
Mo 4.7791860412 10.3355395545 1.4311543936 
Mo 0.4116383390 12.9786335162 0.4560928255 
Mo 2.1837703106 9.1548193295 0.4560880931 
Mo 3.0070683108 14.1592947699 1.4311401853 
Mo 0.4116466944 7.6752730274 2.3433307844 
Mo 4.7791900244 12.7277629461 3.2571459321 
Mo 3.0070717624 8.9039815166 3.2571803522 
Mo 2.1837754735 11.4990864293 2.3433441476 
C 3.8931425154 8.4136853507 1.3986458136 
C 1.2976892501 14.9004401507 0.4885718280 
C 1.2976995476 11.0766636917 0.4885987828 
C 3.8931422824 12.2374953485 1.3986489720 
Mo 9.9700470660 5.5990382523 -2.2821140517  0 0 0
Mo 5.6025041099 0.5945370910 -3.2571756197  0 0 0
Mo 7.3746313354 4.4183180273 -3.2571803522  0 0 0
Mo 8.1979340816 1.7751983448 -2.2821282600  0 0 0
Mo 5.6025077193 2.9387717252 -1.3699376609  0 0 0
Mo 9.9700557952 0.3436665209 -0.4561225132  0 0 0
Mo 8.1979327872 4.1674802144 -0.4560880931  0 0 0
Mo 7.3746364984 6.7625851270 -1.3699242977  0 0 0
C 9.0840035402 3.6771840485 -2.3146226317  0 0 0
C 6.4885550209 2.5163437255 -3.2246966173  0 0 0
C 6.4885605724 6.3401623894 -3.2246696625  0 0 0
C 9.0840033073 7.5009940463 -2.3146194733  0 0 0
Mo 9.9700469262 2.6879444316 1.4311543936 
Mo 5.6024992241 5.3310383932 0.4560928255 
Mo 7.3746311956 1.5072242065 0.4560880931 
Mo 8.1979291958 6.5116996470 1.4311401853 
Mo 5.6025075795 0.0276779044 2.3433307844 
Mo 9.9700509094 5.0801678231 3.2571459321 
Mo 8.1979326474 1.2563863936 3.2571803522 
Mo 7.3746363586 3.8514913063 2.3433441476 
C 9.0840034004 0.7660902277 1.3986458136 
C 6.4885501351 7.2528450277 0.4885718280 
C 6.4885604326 3.4290685687 0.4885987828 
C 9.0840031675 4.5899002255 1.3986489720 
Mo 9.9700423200 13.2466333753 -2.2821140517  0 0 0
Mo 5.6024993639 8.2421322140 -3.2571756197  0 0 0
Mo 7.3746265894 12.0659131503 -3.2571803522  0 0 0
Mo 8.1979293356 9.4227934677 -2.2821282600  0 0 0
Mo 5.6025029733 10.5863668482 -1.3699376609  0 0 0
Mo 9.9700510492 7.9912616439 -0.4561225132  0 0 0
Mo 8.1979280412 11.8150753374 -0.4560880931  0 0 0
Mo 7.3746317523 14.4101802500 -1.3699242977  0 0 0
C 9.0839987942 11.3247791715 -2.3146226317  0 0 0
C 6.4885502749 10.1639388485 -3.2246966173  0 0 0
C 6.4885558264 13.9877575124 -3.2246696625  0 0 0
C 9.0839985612 15.1485891692 -2.3146194733  0 0 0
Mo 9.9700421802 10.3355395545 1.4311543936 
Mo 5.6024944780 12.9786335162 0.4560928255 
Mo 7.3746264496 9.1548193295 0.4560880931 
Mo 8.1979244498 14.1592947699 1.4311401853 
Mo 5.6025028334 7.6752730274 2.3433307844 
Mo 9.9700461634 12.7277629461 3.2571459321 
Mo 8.1979279014 8.9039815166 3.2571803522 
Mo 7.3746316125 11.4990864293 2.3433441476 
C 9.0839986544 8.4136853507 1.3986458136 
C 6.4885453891 14.9004401507 0.4885718280 
C 6.4885556866 11.0766636917 0.4885987828 
C 9.0839984214 12.2374953485 1.3986489720 
Mo 15.1609032050 5.5990382523 -2.2821140517  0 0 0
Mo 10.7933602489 0.5945370910 -3.2571756197  0 0 0
Mo 12.5654874744 4.4183180273 -3.2571803522  0 0 0
Mo 13.3887902206 1.7751983448 -2.2821282600  0 0 0
Mo 10.7933638583 2.9387717252 -1.3699376609  0 0 0
Mo 15.1609119342 0.3436665209 -0.4561225132  0 0 0
Mo 13.3887889262 4.1674802144 -0.4560880931  0 0 0
Mo 12.5654926374 6.7625851270 -1.3699242977  0 0 0
C 14.2748596792 3.6771840485 -2.3146226317  0 0 0
C 11.6794111599 2.5163437255 -3.2246966173  0 0 0
C 11.6794167114 6.3401623894 -3.2246696625  0 0 0
C 14.2748594463 7.5009940463 -2.3146194733  0 0 0
Mo 15.1609030652 2.6879444316 1.4311543936 
Mo 10.7933553631 5.3310383932 0.4560928255 
Mo 12.5654873346 1.5072242065 0.4560880931 
Mo 13.3887853348 6.5116996470 1.4311401853 
Mo 10.7933637185 0.0276779044 2.3433307844 
Mo 15.1609070484 5.0801678231 3.2571459321 
Mo 13.3887887864 1.2563863936 3.2571803522 
Mo 12.5654924976 3.8514913063 2.3433441476 
C 14.2748595394 0.7660902277 1.3986458136 
C 11.6794062741 7.2528450277 0.4885718280 
C 11.6794165716 3.4290685687 0.4885987828 
C 14.2748593065 4.5899002255 1.3986489720 
Mo 15.1608984590 13.2466333753 -2.2821140517  0 0 0
Mo 10.7933555029 8.2421322140 -3.2571756197  0 0 0
Mo 12.5654827284 12.0659131503 -3.2571803522  0 0 0
Mo 13.3887854746 9.4227934677 -2.2821282600  0 0 0
Mo 10.7933591123 10.5863668482 -1.3699376609  0 0 0
Mo 15.1609071882 7.9912616439 -0.4561225132  0 0 0
Mo 13.3887841802 11.8150753374 -0.4560880931  0 0 0
Mo 12.5654878913 14.4101802500 -1.3699242977  0 0 0
C 14.2748549332 11.3247791715 -2.3146226317  0 0 0
C 11.6794064139 10.1639388485 -3.2246966173  0 0 0
C 11.6794119654 13.9877575124 -3.2246696625  0 0 0
C 14.2748547002 15.1485891692 -2.3146194733  0 0 0
Mo 15.1608983192 10.3355395545 1.4311543936 
Mo 10.7933506170 12.9786335162 0.4560928255 
Mo 12.5654825886 9.1548193295 0.4560880931 
Mo 13.3887805888 14.1592947699 1.4311401853 
Mo 10.7933589724 7.6752730274 2.3433307844 
Mo 15.1609023024 12.7277629461 3.2571459321 
Mo 13.3887840404 8.9039815166 3.2571803522 
Mo 12.5654877515 11.4990864293 2.3433441476 
C 14.2748547934 8.4136853507 1.3986458136 
C 11.6794015281 14.9004401507 0.4885718280 
C 11.6794118256 11.0766636917 0.4885987828 
C 14.2748545604 12.2374953485 1.3986489720 

