num_wann            = 80
translate_home_cell = true
guiding_centres     = true
write_xyz           = True
conv_tol            = 1e-10
conv_window         = 5
iprint              = 2
num_iter            = 10000
mp_grid             : 1 1 1
gamma_only          = true
begin kpoints
  0.0000  0.0000  0.0000
end kpoints
begin atoms_cart
Ang
  H      13.006650136552878   17.737291428809357   14.635208045795196
  H      12.051850136552872   17.016291428809353   15.746408045795192
  O      12.751950136552878   17.716291428809356   15.602408045795201
  H      16.369050136552872   15.004291428809367   11.192608045795197
  H      14.766750136552872   15.317291428809355   11.154208045795201
  O      15.523050136552868   14.868291428809357   10.677908045795192
  H      14.207250136552872   14.676091428809357   15.849408045795201
  H      14.029650136552874   16.260291428809367   16.2004080457952
  O      14.692050136552865   15.534291428809354   16.018408045795198
  H      14.660150136552872   13.346191428809362   12.703108045795204
  H      13.299850136552877   14.025791428809356   12.107708045795192
  O      13.682050136552874   13.211491428809367   12.544508045795197
  H      15.536050136552873   15.32729142880936   17.641408045795202
  H      14.983050136552876   14.097891428809362   18.562408045795195
  O      15.625050136552872   14.863291428809362   18.522408045795203
  H      12.050850136552867   13.577891428809366   15.476408045795196
  H      13.072050136552875   13.291491428809366   14.234508045795195
  O      12.948350136552875   13.216191428809367   15.224408045795201
  H      13.566950136552876   16.83929142880936   12.497408045795197
  H      12.79795013655287   16.090291428809365   11.2672080457952
  O      13.426050136552874   15.96429142880936   12.035008045795195
  H      17.893050136552873   13.354191428809358   14.3601080457952
  H      19.006050136552872   12.17659142880936   14.562508045795198
  O      18.77605013655287   13.127191428809354   14.770908045795196
  H      13.721250136552868   11.905891428809355   15.952408045795195
  H      14.521950136552874   10.482991428809356   15.927408045795204
  O      14.044650136552875   11.141391428809357   16.509408045795197
  H      18.715050136552875   15.361291428809366   11.996108045795197
  H      17.746050136552867   15.865291428809357   13.2098080457952
  O      17.769050136552877   15.541291428809359   12.264008045795194
  H      11.026850136552866   15.121291428809357   17.303408045795194
  H      10.191650136552866   15.936291428809355   16.1614080457952
  O      11.105250136552868   15.689291428809355   16.484408045795192
  H      13.827850136552868   12.162291428809354   18.058408045795204
  H      13.932850136552872   12.59569142880936   19.629408045795202
  O      13.742850136552875   12.921791428809357   18.7034080457952
  H      19.29705013655287   15.710291428809356   16.588408045795205
  H      19.084050136552875   14.214191428809357   15.970408045795196
  O      19.456050136552875   14.734291428809357   16.738408045795197
  H      16.635050136552877   18.364291428809366   16.760408045795202
  H      17.087050136552875   19.72029142880936   15.9714080457952
  O      17.307050136552874   18.759291428809362   16.134408045795197
  H      13.275150136552867   18.933291428809355   12.211808045795195
  H      14.476550136552873   18.810291428809364   13.310808045795198
  O      13.586250136552877   18.451291428809355   13.030708045795194
  H      11.418450136552877   15.109291428809357   13.0553080457952
  H      9.860950136552873   15.337291428809365   12.620908045795204
  O      10.508350136552878   14.695891428809361   13.031808045795202
  H      17.55305013655287   17.069291428809365   15.230408045795201
  H      16.43405013655287   15.879291428809367   15.216408045795205
  O      17.23805013655287   16.250291428809362   14.7509080457952
  H      15.738050136552872   12.096691428809365   16.684408045795195
  H      16.869050136552872   11.832691428809355   17.833408045795196
  O      16.71405013655287   12.145991428809367   16.896408045795198
  H      16.78205013655287   13.933091428809362   12.788408045795194
  H      17.102050136552876   12.340191428809362   12.624108045795197
  O      16.54305013655288   13.015391428809366   13.1058080457952
  H      14.518750136552868   17.80329142880936   18.017408045795193
  H      14.094550136552868   18.152291428809363   16.479408045795196
  O      14.862750136552876   17.971291428809366   17.0934080457952
end atoms_cart
begin projections
  random
end projections
begin unit_cell_cart
Ang
  30.0     0.0     0.0
  0.0     30.0     0.0
  0.0     0.0     30.0
end_unit_cell_cart
