&CONTROL
   calculation      = 'relax'
   restart_mode     = 'from_scratch'
   wf_collect       = .true.
   nstep            = 1000
   tstress          = .false.
   tprnfor          = .true.
   outdir           = './outdir'
   pseudo_dir       = './pseudo'
/
&SYSTEM
   ecutwfc          = 77.0
   ecutrho          = 539.0
   nosym            = .true.
   occupations      = 'smearing'
   degauss          = 0.01
   smearing         = 'gaussian'
   assume_isolated  = 'esm'
   esm_bc           = 'bc1'
   vdw_corr         = 'dft-d3'
   dftd3_version    = 4
   ntyp             = 2
   nat              = 144
   ibrav            = 0
/
&ELECTRONS
   electron_maxstep = 1000
   conv_thr         = 1e-06
   mixing_beta      = 0.1
   diagonalization  = 'david'
/
&IONS
/
&CELL
/

ATOMIC_SPECIES
Mo 95.95 Mo.pbe-spn-kjpaw_psl.1.0.0.UPF
C 12.011 C.pbe-n-kjpaw_psl.1.0.0.UPF

K_POINTS automatic
2 2 1  0 0 0

CELL_PARAMETERS angstrom
12.03707724200361 0.00000000000000 0.00000000000000
-0.00000842786624 10.38171227799743 0.00000000000000
0.00000000000000 0.00000000000000 27.99491839826705

ATOMIC_POSITIONS angstrom
Mo 0.7392229129 4.7791951606 6.4974548687 
Mo 5.2792674113 0.4116486587 4.0993813991 
Mo 2.2700186273 2.1837781873 6.4585630940 
Mo 3.7485297923 3.0070798731 4.1382946513 
Mo 2.2700167112 0.4116547110 4.1382832936 
Mo 3.7485317007 4.7792015867 6.4585490231 
Mo 0.7392239354 3.0070810216 4.0993909962 
Mo 5.2792698338 2.1837857932 6.4974591991 
C 2.2717438700 3.8931505305 2.9392505668 
C 3.7467959704 1.2977008138 2.9392414489 
C 0.7374965066 1.2977086684 5.2984248043 
C 5.2810045290 3.8931526007 5.2984205416 
Mo 0.7392167442 4.7791953004 1.7791045447 
Mo 5.2792612426 0.4116487985 -0.6189689249 
Mo 2.2700124587 2.1837783271 1.7402127700 
Mo 3.7485236236 3.0070800129 -0.5800556727 
Mo 2.2700105426 0.4116548508 -0.5800670304 
Mo 3.7485255320 4.7792017265 1.7401986991 
Mo 0.7392177667 3.0070811614 -0.6189593278 
Mo 5.2792636652 2.1837859330 1.7791088751 
C 2.2717377014 3.8931506703 -1.7790997572 
C 3.7467898018 1.2977009536 -1.7791088751 
C 0.7374903379 1.2977088082 0.5800744803 
C 5.2809983604 3.8931527405 0.5800702176 
Mo 0.7392105756 4.7791954402 -2.9392457793  0 0 0
Mo 5.2792550740 0.4116489383 -5.3373192489  0 0 0
Mo 2.2700062900 2.1837784669 -2.9781375540  0 0 0
Mo 3.7485174550 3.0070801527 -5.2984059967  0 0 0
Mo 2.2700043739 0.4116549906 -5.2984173544  0 0 0
Mo 3.7485193634 4.7792018663 -2.9781516249  0 0 0
Mo 0.7392115981 3.0070813012 -5.3373096518  0 0 0
Mo 5.2792574965 2.1837860728 -2.9392414489  0 0 0
C 2.2717315327 3.8931508101 -6.4974500812  0 0 0
C 3.7467836331 1.2977010934 -6.4974591991  0 0 0
C 0.7374841693 1.2977089480 -4.1382758437  0 0 0
C 5.2809921917 3.8931528803 -4.1382801064  0 0 0
Mo 0.7392186990 9.9700512996 6.4974548687 
Mo 5.2792631974 5.6025047977 4.0993813991 
Mo 2.2700144134 7.3746343263 6.4585630940 
Mo 3.7485255784 8.1979360121 4.1382946513 
Mo 2.2700124973 5.6025108500 4.1382832936 
Mo 3.7485274867 9.9700577257 6.4585490231 
Mo 0.7392197214 8.1979371606 4.0993909962 
Mo 5.2792656199 7.3746419322 6.4974591991 
C 2.2717396561 9.0840066695 2.9392505668 
C 3.7467917565 6.4885569528 2.9392414489 
C 0.7374922926 6.4885648074 5.2984248043 
C 5.2810003151 9.0840087397 5.2984205416 
Mo 0.7392125303 9.9700514394 1.7791045447 
Mo 5.2792570287 5.6025049375 -0.6189689249 
Mo 2.2700082447 7.3746344661 1.7402127700 
Mo 3.7485194097 8.1979361519 -0.5800556727 
Mo 2.2700063286 5.6025109898 -0.5800670304 
Mo 3.7485213181 9.9700578655 1.7401986991 
Mo 0.7392135528 8.1979373004 -0.6189593278 
Mo 5.2792594512 7.3746420720 1.7791088751 
C 2.2717334874 9.0840068093 -1.7790997572 
C 3.7467855878 6.4885570926 -1.7791088751 
C 0.7374861240 6.4885649472 0.5800744803 
C 5.2809941464 9.0840088795 0.5800702176 
Mo 0.7392063616 9.9700515792 -2.9392457793  0 0 0
Mo 5.2792508601 5.6025050773 -5.3373192489  0 0 0
Mo 2.2700020761 7.3746346059 -2.9781375540  0 0 0
Mo 3.7485132410 8.1979362917 -5.2984059967  0 0 0
Mo 2.2700001600 5.6025111296 -5.2984173544  0 0 0
Mo 3.7485151494 9.9700580053 -2.9781516249  0 0 0
Mo 0.7392073841 8.1979374402 -5.3373096518  0 0 0
Mo 5.2792532826 7.3746422118 -2.9392414489  0 0 0
C 2.2717273188 9.0840069491 -6.4974500812  0 0 0
C 3.7467794192 6.4885572324 -6.4974591991  0 0 0
C 0.7374799553 6.4885650870 -4.1382758437  0 0 0
C 5.2809879778 9.0840090193 -4.1382801064  0 0 0
Mo 6.7577615339 4.7791951606 6.4974548687 
Mo 11.2978060323 0.4116486587 4.0993813991 
Mo 8.2885572483 2.1837781873 6.4585630940 
Mo 9.7670684133 3.0070798731 4.1382946513 
Mo 8.2885553322 0.4116547110 4.1382832936 
Mo 9.7670703217 4.7792015867 6.4585490231 
Mo 6.7577625564 3.0070810216 4.0993909962 
Mo 11.2978084548 2.1837857932 6.4974591991 
C 8.2902824910 3.8931505305 2.9392505668 
C 9.7653345914 1.2977008138 2.9392414489 
C 6.7560351276 1.2977086684 5.2984248043 
C 11.2995431500 3.8931526007 5.2984205416 
Mo 6.7577553652 4.7791953004 1.7791045447 
Mo 11.2977998636 0.4116487985 -0.6189689249 
Mo 8.2885510797 2.1837783271 1.7402127700 
Mo 9.7670622446 3.0070800129 -0.5800556727 
Mo 8.2885491636 0.4116548508 -0.5800670304 
Mo 9.7670641530 4.7792017265 1.7401986991 
Mo 6.7577563877 3.0070811614 -0.6189593278 
Mo 11.2978022862 2.1837859330 1.7791088751 
C 8.2902763224 3.8931506703 -1.7790997572 
C 9.7653284228 1.2977009536 -1.7791088751 
C 6.7560289589 1.2977088082 0.5800744803 
C 11.2995369814 3.8931527405 0.5800702176 
Mo 6.7577491966 4.7791954402 -2.9392457793  0 0 0
Mo 11.2977936950 0.4116489383 -5.3373192489  0 0 0
Mo 8.2885449110 2.1837784669 -2.9781375540  0 0 0
Mo 9.7670560760 3.0070801527 -5.2984059967  0 0 0
Mo 8.2885429949 0.4116549906 -5.2984173544  0 0 0
Mo 9.7670579844 4.7792018663 -2.9781516249  0 0 0
Mo 6.7577502191 3.0070813012 -5.3373096518  0 0 0
Mo 11.2977961175 2.1837860728 -2.9392414489  0 0 0
C 8.2902701537 3.8931508101 -6.4974500812  0 0 0
C 9.7653222541 1.2977010934 -6.4974591991  0 0 0
C 6.7560227903 1.2977089480 -4.1382758437  0 0 0
C 11.2995308127 3.8931528803 -4.1382801064  0 0 0
Mo 6.7577573200 9.9700512996 6.4974548687 
Mo 11.2978018184 5.6025047977 4.0993813991 
Mo 8.2885530344 7.3746343263 6.4585630940 
Mo 9.7670641994 8.1979360121 4.1382946513 
Mo 8.2885511183 5.6025108500 4.1382832936 
Mo 9.7670661077 9.9700577257 6.4585490231 
Mo 6.7577583424 8.1979371606 4.0993909962 
Mo 11.2978042409 7.3746419322 6.4974591991 
C 8.2902782771 9.0840066695 2.9392505668 
C 9.7653303775 6.4885569528 2.9392414489 
C 6.7560309136 6.4885648074 5.2984248043 
C 11.2995389361 9.0840087397 5.2984205416 
Mo 6.7577511513 9.9700514394 1.7791045447 
Mo 11.2977956497 5.6025049375 -0.6189689249 
Mo 8.2885468657 7.3746344661 1.7402127700 
Mo 9.7670580307 8.1979361519 -0.5800556727 
Mo 8.2885449496 5.6025109898 -0.5800670304 
Mo 9.7670599391 9.9700578655 1.7401986991 
Mo 6.7577521738 8.1979373004 -0.6189593278 
Mo 11.2977980722 7.3746420720 1.7791088751 
C 8.2902721084 9.0840068093 -1.7790997572 
C 9.7653242088 6.4885570926 -1.7791088751 
C 6.7560247450 6.4885649472 0.5800744803 
C 11.2995327674 9.0840088795 0.5800702176 
Mo 6.7577449826 9.9700515792 -2.9392457793  0 0 0
Mo 11.2977894811 5.6025050773 -5.3373192489  0 0 0
Mo 8.2885406971 7.3746346059 -2.9781375540  0 0 0
Mo 9.7670518620 8.1979362917 -5.2984059967  0 0 0
Mo 8.2885387810 5.6025111296 -5.2984173544  0 0 0
Mo 9.7670537704 9.9700580053 -2.9781516249  0 0 0
Mo 6.7577460051 8.1979374402 -5.3373096518  0 0 0
Mo 11.2977919036 7.3746422118 -2.9392414489  0 0 0
C 8.2902659398 9.0840069491 -6.4974500812  0 0 0
C 9.7653180402 6.4885572324 -6.4974591991  0 0 0
C 6.7560185763 6.4885650870 -4.1382758437  0 0 0
C 11.2995265988 9.0840090193 -4.1382801064  0 0 0

