&CONTROL
   calculation      = 'nscf'
   verbosity        = 'high'
   restart_mode     = 'from_scratch'
   wf_collect       = .true.
   outdir           = './outdir'
   pseudo_dir       = './pseudo'
/
&SYSTEM
   nbnd             = 1267
   ecutwfc          = 77.0
   ecutrho          = 539.0
   occupations      = 'tetrahedra'
   assume_isolated  = 'esm'
   esm_bc           = 'bc1'
   vdw_corr         = 'dft-d3'
   dftd3_version    = 4
   ntyp             = 4
   nat              = 146
   ibrav            = 0
/
&ELECTRONS
   electron_maxstep = 1000
   conv_thr         = 1e-06
   mixing_beta      = 0.2
   diagonalization  = 'david'
/
&IONS
/
&CELL
/

ATOMIC_SPECIES
Mo 95.95 Mo.pbe-spn-kjpaw_psl.1.0.0.UPF
S 32.06 S.pbe-n-kjpaw_psl.1.0.0.UPF
Pd 106.42 Pd.pbe-spn-kjpaw_psl.1.0.0.UPF
H 1.008 H.pbe-kjpaw_psl.1.0.0.UPF

K_POINTS automatic
2 2 1  0 0 0

CELL_PARAMETERS angstrom
12.61532217525308 0.00000000000000 0.00000000000000
-6.30767370294872 10.92519700214573 0.00000000000000
0.00000000000000 0.00000000000000 30.30125956094956

ATOMIC_POSITIONS angstrom
Mo 1.5695114272 2.7188989644 6.0852618705 
Mo 1.5769197498 0.9104407117 -6.0872367793 
Mo 0.0002286790 1.8210388878 -0.0005553746 
S 0.0000044503 0.0000077495 -7.6506323570 
S 1.5764685397 0.9107786766 -1.5669968577 
S 0.0017404049 1.8215828795 4.5072526823 
S 0.0000053241 0.0000068460 -4.5222282367 
S 1.5774763285 0.9101316055 1.5655277907 
S -0.0141515514 1.8093505703 7.6480443267 
Mo -0.0144432706 5.4623880153 6.0852648744 
Mo 0.0000011799 3.6417399547 -6.0872367793 
Mo -1.5766670507 4.5522967383 -0.0005564297 
S -1.5769141197 2.7313069925 -7.6506323570 
S 0.0000671844 3.6417844798 -1.5659920181 
S -1.5754284736 4.5533183460 4.5072537150 
S -1.5769132459 2.7313060890 -4.5222282367 
S 0.0010883794 3.6423756543 1.5671978234 
S -1.5939685402 4.5456707497 7.6480442398 
Mo -1.5784988772 8.1947896564 6.0762550137 
Mo -1.5769173901 6.3730391977 -6.0872367793 
Mo -3.1538604057 7.2833445710 -0.0019853444 
S -3.1538326896 5.4626062355 -7.6506323570 
S -1.5768573457 6.3724911608 -1.5669977679 
S -3.1538548190 7.2852101154 4.5087188124 
S -3.1538318159 5.4626053320 -4.5222282367 
S -1.5769136704 6.3736874329 1.5655245722 
S -3.1538546272 7.2827517822 7.6437870397 
Mo 3.1538157095 -0.0018091341 6.0762556080 
Mo -3.1538359601 9.1043384407 -6.0872367793 
Mo -4.7308822033 10.0148249768 -0.0019837740 
S -4.7307512596 8.1939054785 -7.6506323570 
S -3.1538634325 9.1043317730 -1.5674049960 
S -4.7292534429 10.0138784106 4.5087185780 
S -4.7307503859 8.1939045750 -4.5222282367 
S -3.1538630464 9.1043301490 1.5646170468 
S -4.7313833873 10.0151068838 7.6437870244 
Mo 4.7381177884 2.7188954695 6.0852570798 
Mo 4.7307503218 0.9104407117 -6.0872367793 
Mo 3.1538066796 1.8209202070 -0.0019105820 
S 3.1538350223 0.0000077495 -7.6506323570 
S 4.7311485003 0.9107788192 -1.5669960738 
S 3.1538134550 1.8217801672 4.5155153176 
S 3.1538358961 0.0000068460 -4.5222282367 
S 4.7301396513 0.9101308881 1.5655257775 
S 3.1538162275 1.8125464911 7.6503795041 
Mo 3.1538112951 5.4625862785 6.1543277630 
Mo 3.1538317519 3.6417399547 -6.0872367793 
Mo 1.5772432582 4.5523693106 -0.0009989525 
S 1.5769164523 2.7313069925 -7.6506323570 
S 3.1538055774 3.6420010019 -1.5668825406 
S 1.5951096097 4.5626719156 4.5543671444 
S 1.5769173261 2.7313060890 -4.5222282367 
S 3.1538049787 3.6413664385 1.5660207529 
S 1.4950278948 4.5048877688 7.6874492450 
Mo 1.5698503086 8.2064864188 6.0852582271 
Mo 1.5769131819 6.3730391977 -6.0872367793 
Mo 0.0000173102 7.2834378852 -0.0019123581 
S -0.0000021176 5.4626062355 -7.6506323570 
S 1.5771208502 6.3728977417 -1.5668832804 
S 0.0007764524 7.2829939318 4.5155158305 
S -0.0000012439 5.4626053320 -4.5222282367 
S 1.5765700645 6.3732152731 1.5660198969 
S -0.0072200378 7.2876136594 7.6503782606 
Mo 6.3084422121 0.0004517320 6.0720450007 
Mo -0.0000053881 9.1043384407 -6.0872367793 
Mo -1.5768449433 10.0148241516 -0.0019842637 
S -1.5769206876 8.1939054785 -7.6506323570 
S 0.0004791767 9.1045275405 -1.5669968593 
S -1.5784619978 10.0138788700 4.5087188448 
S -1.5769198139 8.1939045750 -4.5222282367 
S -0.0005850956 9.1039770551 1.5655245318 
S -1.5763304985 10.0151083971 7.6437851046 
Mo 7.8864987108 2.7301708520 6.0720435780 
Mo 7.8845808939 0.9104407117 -6.0872367793 
Mo 6.3073884566 1.8210395698 -0.0005553239 
S 6.3076655943 0.0000077495 -7.6506323570 
S 7.8846012090 0.9104616931 -1.5658528875 
S 6.3058886691 1.8215821762 4.5072478077 
S 6.3076664681 0.0000068460 -4.5222282367 
S 7.8841957062 0.9102264285 1.5661519936 
S 6.3217793389 1.8093505638 7.6480428602 
Mo 6.3220651390 5.4623878408 6.0852634762 
Mo 6.3076623239 3.6417399547 -6.0872367793 
Mo 4.7303672895 4.5523709956 -0.0009984053 
S 4.7307470244 2.7313069925 -7.6506323570 
S 6.3075460827 3.6417851691 -1.5659911248 
S 4.7125139670 4.5626717352 4.5543630089 
S 4.7307478981 2.7313060890 -4.5222282367 
S 6.3065224511 3.6423757825 1.5671982202 
S 4.8125944217 4.5048861969 7.6874399090 
Mo 4.7377628530 8.2064838190 6.0852618939 
Mo 4.7307437539 6.3730391977 -6.0872367793 
Mo 3.1538025772 7.2830587819 -0.0009991185 
S 3.1538284544 5.4626062355 -7.6506323570 
S 4.7304847732 6.3728980673 -1.5668815519 
S 3.1538088542 7.2624234966 4.5543635596 
S 3.1538293281 5.4626053320 -4.5222282367 
S 4.7310342961 6.3732154498 1.5660178175 
S 3.1538066914 7.3779750309 7.6874264628 
Mo 9.4614770745 0.0022326394 6.0720432069 
Mo 3.1538251839 9.1043384407 -6.0872367793 
Mo 1.5769067494 10.0144635948 -0.0005565762 
S 1.5769098844 8.1939054785 -7.6506323570 
S 3.1537997498 9.1042279845 -1.5659923298 
S 1.5766372924 10.0128728762 4.5072484187 
S 1.5769107581 8.1939045750 -4.5222282367 
S 3.1537985095 9.1030471354 1.5671978317 
S 1.5739912917 10.0327512478 7.6480418486 
Mo -1.5788743700 2.7301706016 6.0720451250 
Mo 11.0384114659 0.9104407117 -6.0872367793 
Mo 9.4614703716 1.8208675745 -0.0004448714 
S 9.4614961663 0.0000077495 -7.6506323570 
S 11.0383391249 0.9104614025 -1.5658540213 
S 9.4614742131 1.8208594222 4.5042207206 
S 9.4614970401 0.0000068460 -4.5222282367 
S 11.0387444368 0.9102270600 1.5661546839 
S 9.4614732820 1.8208577841 7.6413365326 
Mo -3.1538528747 5.4616730705 6.0720478970 
Mo 9.4614928959 3.6417399547 -6.0872367793 
Mo 7.8842753823 4.5522961942 -0.0005566010 
S 7.8845775964 2.7313069925 -7.6506323570 
S 9.4614672379 3.6416789198 -1.5658544712 
S 7.8830486249 4.5533175751 4.5072514983 
S 7.8845784701 2.7313060890 -4.5222282367 
S 9.4614682630 3.6421475834 1.5661535988 
S 7.9015886254 4.5456692346 7.6480453476 
Mo -4.7292109415 8.1947892477 6.0762553218 
Mo 7.8845743259 6.3730391977 -6.0872367793 
Mo 6.3075863761 7.2834401806 -0.0019108989 
S 6.3076590264 5.4626062355 -7.6506323570 
S 7.8844616770 6.3724904820 -1.5669970823 
S 6.3068377141 7.2829941296 4.5155152108 
S 6.3076599001 5.4626053320 -4.5222282367 
S 7.8845178154 6.3736882976 1.5655255394 
S 6.3148361000 7.2876110703 7.6503805240 
Mo -0.0008103246 0.0004500088 6.0720464167 
Mo 6.3076557559 9.1043384407 -6.0872367793 
Mo 4.7306895332 10.0144631776 -0.0005562247 
S 4.7307404564 8.1939054785 -7.6506323570 
S 6.3071185088 9.1045295839 -1.5669963829 
S 4.7309705895 10.0128702263 4.5072506600 
S 4.7307413301 8.1939045750 -4.5222282367 
S 6.3081821973 9.1039788606 1.5655261148 
S 4.7336158342 10.0327504191 7.6480445886 
Pd 3.1538406653 5.4626356206 9.0723472934 
H 3.1540013710 5.4630017054 10.6681222369 

