&CONTROL
   calculation      = 'relax'
   restart_mode     = 'restart'
   wf_collect       = .true.
   nstep            = 1000
   tstress          = .false.
   tprnfor          = .true.
   outdir           = './outdir'
   pseudo_dir       = './pseudo'
/
&SYSTEM
   ecutwfc          = 77.0
   ecutrho          = 539.0
   nosym            = .true.
   occupations      = 'smearing'
   degauss          = 0.01
   smearing         = 'gaussian'
   assume_isolated  = 'esm'
   esm_bc           = 'bc1'
   vdw_corr         = 'dft-d3'
   dftd3_version    = 4
   ntyp             = 3
   nat              = 194
   ibrav            = 0
/
&ELECTRONS
   electron_maxstep = 1000
   conv_thr         = 1e-06
   mixing_beta      = 0.2
   diagonalization  = 'david'
/
&IONS
/
&CELL
/

ATOMIC_SPECIES
Mo 95.95 Mo.pbe-spn-kjpaw_psl.1.0.0.UPF
S 32.06 S.pbe-n-kjpaw_psl.1.0.0.UPF
Pd 106.42 Pd.pbe-spn-kjpaw_psl.1.0.0.UPF

K_POINTS automatic
2 2 1  0 0 0

CELL_PARAMETERS angstrom
12.60495876880469 0.00000000000000 0.00000000000000
-6.30246677944357 10.91622202271285 0.00000000000000
0.00000000000000 0.00000000000000 36.46614571815195

ATOMIC_POSITIONS angstrom
Mo 0.0000119917 1.8193638619 -9.1672481230  0 0 0
Mo 1.5756136568 0.9097075315 -3.0554901653  0 0 0
S 0.0000188998 1.8193822938 -4.6232556019  0 0 0
S 1.5756321638 0.9096773839 -7.6014065489  0 0 0
S 1.5756326175 0.9096785128 -10.7330757790  0 0 0
S 0.0000189190 1.8193860094 -1.4877129945  0 0 0
Mo 0.0000089900 1.8196386097 3.0557008815 
Mo 1.5756712595 0.9079632209 9.1589751230 
S 0.0009353905 1.8212533206 7.5893818940 
S 1.5756499392 0.9097005877 4.6228409336 
S 1.5756644275 0.9099214128 1.4878231910 
S -0.0051910362 1.8035985404 10.7322900276 
Mo -1.5756053507 4.5484193819 -9.1672481230  0 0 0
Mo 0.0000378379 3.6387394919 -3.0554952701  0 0 0
S -1.5755913433 4.5484363582 -4.6232494962  0 0 0
S 0.0000148214 3.6387329039 -7.6014065489  0 0 0
S 0.0000152751 3.6387340328 -10.7330757790  0 0 0
S -1.5755906502 4.5484413613 -1.4877305502  0 0 0
Mo -1.5752778008 4.5486057066 3.0562080205 
Mo -0.0090665171 3.6259748888 9.1706626747 
S -1.5770248274 4.5476031385 7.5973327718 
S 0.0007826250 3.6391763476 4.6239735360 
S -0.0001212860 3.6389277793 1.4880498653 
S -1.5815106561 4.5450131703 10.7361572491 
Mo -3.1512226931 7.2774749019 -9.1672481230  0 0 0
Mo -1.5755910988 6.3678216792 -3.0555115988  0 0 0
S -3.1512162438 7.2774954350 -4.6232578178  0 0 0
S -1.5756025210 6.3677884239 -7.6014065489  0 0 0
S -1.5756020673 6.3677895528 -10.7330757790  0 0 0
S -3.1512127704 7.2774877076 -1.4877200710  0 0 0
Mo -3.1509817969 7.2773334748 3.0557003805 
Mo -1.5911941115 6.3663099471 9.1706635381 
S -3.1491256445 7.2773337757 7.5893802069 
S -1.5748334332 6.3682252510 4.6239740129 
S -1.5754997023 6.3675686135 1.4880545580 
S -3.1674792062 7.2808546006 10.7322910732 
Mo -4.7268400355 10.0065304219 -9.1672481230  0 0 0
Mo -3.1512405618 9.0968403586 -3.0554816746  0 0 0
S -4.7268341792 10.0065523623 -4.6232463762  0 0 0
S -3.1512198634 9.0968439439 -7.6014065489  0 0 0
S -3.1512194097 9.0968450728 -10.7330757790  0 0 0
S -4.7268370797 10.0065537885 -1.4877176751  0 0 0
Mo -4.7268114491 10.0065323747 3.0552376528 
Mo -3.1526863190 9.0977400771 9.1589778465 
S -4.7267896256 10.0065602101 7.5897916313 
S -3.1511861525 9.0968442445 4.6228537043 
S -3.1509998706 9.0967394890 1.4877926544 
S -4.7268008825 10.0065536973 10.7288215308 
Mo 3.1512517547 1.8193638619 -9.1672481230  0 0 0
Mo 4.7269020221 0.9097289540 -3.0554823951  0 0 0
S 3.1512612351 1.8193882564 -4.6232320683  0 0 0
S 4.7268719268 0.9096773839 -7.6014065489  0 0 0
S 4.7268723805 0.9096785128 -10.7330757790  0 0 0
S 3.1512592485 1.8193890201 -1.4877261251  0 0 0
Mo 3.1513082772 1.8196441413 3.0557085891 
Mo 4.7259501722 0.9091487481 9.1562307678 
S 3.1504122714 1.8212456771 7.5893806715 
S 4.7272584287 0.9099012532 4.6229906422 
S 4.7267641931 0.9096294072 1.4878209931 
S 3.1565331265 1.8035990111 10.7322909491 
Mo 1.5756344123 4.5484193819 -9.1672481230  0 0 0
Mo 3.1512756394 3.6387769522 -3.0554814834  0 0 0
S 1.5756504879 4.5484423799 -4.6232390542  0 0 0
S 3.1512545844 3.6387329039 -7.6014065489  0 0 0
S 3.1512550381 3.6387340328 -10.7330757790  0 0 0
S 1.5756466253 4.5484431864 -1.4877251801  0 0 0
Mo 1.5756682425 4.5486927738 3.0553954275 
Mo 3.1604205327 3.6259734523 9.1706593237 
S 1.5756772639 4.5720324120 7.6410610534 
S 3.1505602450 3.6391971864 4.6239696295 
S 3.1514555625 3.6389251969 1.4880689995 
S 1.5756784408 4.4358151167 10.7870785958 
Mo 0.0000170699 7.2774749019 -9.1672481230  0 0 0
Mo 1.5756764447 6.3678236689 -3.0554877708  0 0 0
S 0.0000381981 7.2774979204 -4.6232454413  0 0 0
S 1.5756372420 6.3677884239 -7.6014065489  0 0 0
S 1.5756376957 6.3677895528 -10.7330757790  0 0 0
S 0.0000328088 7.2774946042 -1.4877307940  0 0 0
Mo 0.0002800024 7.2773469049 3.0553967386 
Mo 1.5756796389 6.3678190708 9.2285695647 
S 0.0204847987 7.2657121245 7.6410585565 
S 1.5756786032 6.3677922058 4.6232181560 
S 1.5756807936 6.3677963924 1.4873369104 
S -0.0974803621 7.3338199680 10.7870800974 
Mo -1.5756002725 10.0065304219 -9.1672481230  0 0 0
Mo 0.0000873425 9.0968676911 -3.0554912329  0 0 0
S -1.5755883952 10.0065504530 -4.6232240150  0 0 0
S 0.0000198996 9.0968439439 -7.6014065489  0 0 0
S 0.0000203533 9.0968450728 -10.7330757790  0 0 0
S -1.5755859047 10.0065492576 -1.4877362381  0 0 0
Mo -1.5753347472 10.0064387390 3.0557027429 
Mo -0.0064493036 9.1111683425 9.1706590462 
S -1.5743926784 10.0048660520 7.5893799956 
S 0.0000539584 9.0960015757 4.6239541466 
S 0.0002842766 9.0969079102 1.4880776710 
S -1.5866128990 10.0189900891 10.7322920408 
Mo 6.3024915177 1.8193638619 -9.1672481230  0 0 0
Mo 7.8781001445 0.9096521684 -3.0554919963  0 0 0
S 6.3025008696 1.8193826232 -4.6232480596  0 0 0
S 7.8781116898 0.9096773839 -7.6014065489  0 0 0
S 7.8781121435 0.9096785128 -10.7330757790  0 0 0
S 6.3025042007 1.8193849068 -1.4877147524  0 0 0
Mo 6.3025735657 1.8194139362 3.0551809680 
Mo 7.8781516582 0.9117656078 9.1643897944 
S 6.3054621016 1.8210800277 7.5927160829 
S 7.8781354151 0.9098097123 4.6229468591 
S 7.8781496493 0.9091453621 1.4877826645 
S 6.3009067269 1.8184518133 10.7303109350 
Mo 4.7268741753 4.5484193819 -9.1672481230  0 0 0
Mo 6.3024679138 3.6387501714 -3.0554895197  0 0 0
S 4.7268748770 4.5484386753 -4.6232519432  0 0 0
S 6.3024943474 3.6387329039 -7.6014065489  0 0 0
S 6.3024948011 3.6387340328 -10.7330757790  0 0 0
S 4.7268770533 4.5484432419 -1.4877137856  0 0 0
Mo 4.7266017479 4.5486218749 3.0561991092 
Mo 6.3043211863 3.6377294274 9.1643898445 
S 4.7283788131 4.5476057953 7.5973286906 
S 6.3026122261 3.6387004186 4.6229550443 
S 6.3020445703 3.6390379530 1.4877589219 
S 4.7328658509 4.5450187931 10.7361497282 
Mo 3.1512568329 7.2774749019 -9.1672481230  0 0 0
Mo 4.7268384135 6.3678043337 -3.0554959052  0 0 0
S 3.1512606125 7.2774972547 -4.6232589675  0 0 0
S 4.7268770050 6.3677884239 -7.6014065489  0 0 0
S 4.7268774587 6.3677895528 -10.7330757790  0 0 0
S 3.1512629079 7.2774963749 -1.4877081835  0 0 0
Mo 3.1510675963 7.2773499473 3.0553981547 
Mo 4.7425583461 6.3663132266 9.1706531500 
S 3.1308746801 7.2657111780 7.6410548282 
S 4.7261562136 6.3682249503 4.6240025722 
S 4.7268236621 6.3675838310 1.4880284392 
S 3.2488494891 7.3338218120 10.7870674664 
Mo 1.5756394905 10.0065304219 -9.1672481230  0 0 0
Mo 3.1512330605 9.0968514907 -3.0554878870  0 0 0
S 1.5756499830 10.0065443759 -4.6232632674  0 0 0
S 3.1512596626 9.0968439439 -7.6014065489  0 0 0
S 3.1512601163 9.0968450728 -10.7330757790  0 0 0
S 1.5756503041 10.0065459699 -1.4877044377  0 0 0
Mo 1.5756792208 10.0061869567 3.0562052831 
Mo 3.1578192095 9.1111680417 9.1706531352 
S 1.5756860941 10.0082442502 7.5973261943 
S 3.1513005534 9.0959905175 4.6239872364 
S 3.1510684429 9.0968917517 1.4880458726 
S 1.5756883060 10.0134213368 10.7361502825 
Mo 9.4537312807 1.8193638619 -9.1672481230  0 0 0
Mo 11.0293863460 0.9096952246 -3.0554894007  0 0 0
S 9.4537395970 1.8193770750 -4.6232328036  0 0 0
S 11.0293514528 0.9096773839 -7.6014065489  0 0 0
S 11.0293519066 0.9096785128 -10.7330757790  0 0 0
S 9.4537393632 1.8193794783 -1.4877366147  0 0 0
Mo 9.4537014364 1.8194116354 3.0551925134 
Mo 11.0303521043 0.9091531844 9.1562263290 
S 9.4508365682 1.8210862581 7.5927131398 
S 11.0290337901 0.9098858527 4.6229888178 
S 11.0294985710 0.9096140492 1.4878163482 
S 9.4553965878 1.8184508515 10.7303118238 
Mo 7.8781139383 4.5484193819 -9.1672481230  0 0 0
Mo 9.4537539161 3.6387607911 -3.0554933032  0 0 0
S 7.8781175448 4.5484378232 -4.6232366318  0 0 0
S 9.4537341104 3.6387329039 -7.6014065489  0 0 0
S 9.4537345641 3.6387340328 -10.7330757790  0 0 0
S 7.8781194018 4.5484411585 -1.4877377057  0 0 0
Mo 7.8781399570 4.5483617310 3.0551859626 
Mo 9.4519881944 3.6377297451 9.1643931754 
S 7.8781577333 4.5450564051 7.5927108765 
S 9.4536477953 3.6386874902 4.6229550021 
S 9.4542225694 3.6390134196 1.4877865829 
S 7.8781534412 4.5503231188 10.7303110652 
Mo 6.3024965959 7.2774749019 -9.1672481230  0 0 0
Mo 7.8781361655 6.3678242352 -3.0555014130  0 0 0
S 6.3024973331 7.2774953556 -4.6232392528  0 0 0
S 7.8781167680 6.3677884239 -7.6014065489  0 0 0
S 7.8781172217 6.3677895528 -10.7330757790  0 0 0
S 6.3024989866 7.2774929744 -1.4877349119  0 0 0
Mo 6.3022965024 7.2773254486 3.0557029558 
Mo 7.8781611253 6.3689237573 9.1562248705 
S 6.3004973425 7.2773333136 7.5893716991 
S 7.8781370364 6.3673951680 4.6229797158 
S 7.8781303389 6.3679433204 1.4878271120 
S 6.3188388492 7.2808641028 10.7322807365 
Mo 4.7268792535 10.0065304219 -9.1672481230  0 0 0
Mo 6.3025111524 9.0968738021 -3.0554915260  0 0 0
S 4.7268840634 10.0065452125 -4.6232380477  0 0 0
S 6.3024994256 9.0968439439 -7.6014065489  0 0 0
S 6.3024998793 9.0968450728 -10.7330757790  0 0 0
S 4.7268847312 10.0065459141 -1.4877283294  0 0 0
Mo 4.7266684423 10.0064304989 3.0557018703 
Mo 6.3040536855 9.0977438816 9.1589646921 
S 4.7257563340 10.0048719113 7.5893730283 
S 6.3025056132 9.0968322139 4.6228337915 
S 6.3023202977 9.0967213348 1.4878216173 
S 4.7379843974 10.0189902366 10.7322807733 
Pd 1.5756990442 6.3678255483 12.1024753336 
Pd 3.1860000000 5.4383333333 13.8700000000 

