SystemName	siesta
SystemLabel	siesta

%block ExternalElectricField
0.0 0.0 -0.0514220632 V/Ang
%endblock ExternalElectricField
MaxSCFIterations	2000
SCF.DM.Tolerance	1e-08
SCFMustConverge	False
SolutionMethod	diagon
WriteCoorCerius	True
WriteCoorStep	True
WriteCoorXmol	True
WriteForces	True
WriteMDHistory	True
WriteMDXmol	True
siesta2Wannier90.WriteAmn	True
siesta2Wannier90.WriteEig	True
siesta2Wannier90.WriteMmn	True
siesta2Wannier90.WriteUnk	False

Spin     	non-polarized
XC.functional	GGA
XC.authors	PBE

MeshCutoff	680.2846506091811	eV
PAO.EnergyShift	0.1	eV

NumberOfSpecies	4
NumberOfAtoms	114
%block ChemicalSpecieslabel
    1 6 C.gga.1
    2 1 H.gga.2
    3 7 N.gga.3
    4 30 Zn.gga.4
%endblock ChemicalSpecieslabel

%block PAO.BasisSizes
    C.gga.1	SZ
    H.gga.2	SZ
    N.gga.3	SZ
    Zn.gga.4	SZ
%endblock PAO.BasisSizes


LatticeConstant	1.0 Ang
%block LatticeVectors
    30.000000000000000     0.000000000000000     0.000000000000000 
    0.000000000000000     30.000000000000000     0.000000000000000 
    0.000000000000000     0.000000000000000     30.000000000000000 
%endblock LatticeVectors


AtomicCoordinatesFormat  Ang
%block AtomicCoordinatesAndAtomicSpecies
    14.253196423     15.339702965     13.013522333 1
    12.796521423     15.429481965     14.860490333 1
    12.641368423     16.672794965     16.703662333 1
    16.068564423     16.460237965     12.358242333 1
    14.626502423     14.796662965     11.715674333 1
    15.765549423     15.499848965     11.303090333 1
    16.361772423     15.226144965     10.073428333 1
    15.786481423     14.240035965      9.287554333 1
    14.651996423     13.537335965      9.702945333 1
    14.054448423     13.803759965     10.927158333 1
    11.593030423     14.986411965     15.554404333 1
    10.640877423     14.025537965     15.242696333 1
     9.578225423     13.873156965     16.119209333 1
     9.465145423     14.658355965     17.268798333 1
    10.417456423     15.618258965     17.584468333 1
    11.487958423     15.773066965     16.708946333 1
    17.358631423     18.180105965     13.296337333 1
    13.931435423     18.392662965     17.641758333 1
    18.512041423     19.079832965     13.291054333 1
    17.203478423     19.423417965     15.139509333 1
    15.746803423     19.513196965     16.986478333 1
    14.234450423     19.353050965     18.696909333 1
    19.582543423     19.234640965     12.415531333 1
    18.406969423     19.866487965     14.445595333 1
    15.373497423     20.056236965     18.284325333 1
    13.638227423     19.626754965     19.926571333 1
    20.534854423     20.194543965     12.731201333 1
    19.359123423     20.827361965     14.757303333 1
    15.945551423     21.049139965     19.072841333 1
    14.213518423     20.612863965     20.712445333 1
    20.421774423     20.979742965     13.880790333 1
    15.348003423     21.315563965     20.297054333 1
    17.133782423     15.698501965      9.784537333 2
    16.173656423     14.036179965      8.444275333 2
    14.284353423     12.866941965      9.139014333 2
    13.284995423     13.326695965     11.215108333 2
    10.714906423     13.493043965     14.459381333 2
     8.912583423     13.221329965     15.934001333 2
     8.721577423     14.532718965     17.846696333 2
    10.341049423     16.149472965     18.368510333 2
    19.658950423     18.703427965     11.631489333 2
    12.866217423     19.154397965     20.215462333 2
    21.278422423     20.320180965     12.153303333 2
    19.285093423     21.359856965     15.540618333 2
    16.715004423     21.526203965     18.784891333 2
    13.826343423     20.816719965     21.555724333 2
    21.087416423     21.631569965     14.065998333 2
    15.715646423     21.985957965     20.860985333 2
    15.123508423     16.332606965     13.354287333 3
    13.203044423     14.896632965     13.706444333 3
    13.380369423     16.436943965     15.573391333 3
    17.108439423     17.294936965     12.329514333 3
    12.891560423     17.557962965     17.670486333 3
    16.619630423     18.415955965     14.426609333 3
    14.876491423     18.520293965     16.645712333 3
    16.796955423     19.956266965     16.293555333 3
    15.000000423     17.426449965     15.000000333 4
    15.746803423     14.660296965     16.986478333 1
    17.203478423     14.570517965     15.139509333 1
    17.358631423     13.327204965     13.296337333 1
    13.931435423     13.539761965     17.641758333 1
    15.373497423     15.203336965     18.284325333 1
    14.234450423     14.500150965     18.696909333 1
    13.638227423     14.773854965     19.926571333 1
    14.213518423     15.759963965     20.712445333 1
    15.348003423     16.462663965     20.297054333 1
    15.945551423     16.196239965     19.072841333 1
    18.406969423     15.013587965     14.445595333 1
    19.359123423     15.974461965     14.757303333 1
    20.421774423     16.126842965     13.880790333 1
    20.534854423     15.341643965     12.731201333 1
    19.582543423     14.381740965     12.415531333 1
    18.512041423     14.226932965     13.291054333 1
    12.641368423     11.819894965     16.703662333 1
    16.068564423     11.607337965     12.358242333 1
    11.487958423     10.920166965     16.708946333 1
    14.253196423     10.486802965     13.013522333 1
    12.796521423     10.576581965     14.860490333 1
    15.765549423     10.646948965     11.303090333 1
    11.593030423     10.133511965     15.554404333 1
    10.417456423     10.765358965     17.584468333 1
    14.626502423      9.943762965     11.715674333 1
    16.361772423     10.373244965     10.073428333 1
    10.640877423      9.172637965     15.242696333 1
     9.465145423      9.805455965     17.268798333 1
    14.054448423      8.950859965     10.927158333 1
    15.786481423      9.387135965      9.287554333 1
     9.578225423      9.020256965     16.119209333 1
    14.651996423      8.684435965      9.702945333 1
    12.866217423     14.301497965     20.215462333 2
    13.826343423     15.963819965     21.555724333 2
    15.715646423     17.133057965     20.860985333 2
    16.715004423     16.673303965     18.784891333 2
    19.285093423     16.506955965     15.540618333 2
    21.087416423     16.778669965     14.065998333 2
    21.278422423     15.467280965     12.153303333 2
    19.658950423     13.850526965     11.631489333 2
    10.341049423     11.296572965     18.368510333 2
    17.133782423     10.845601965      9.784537333 2
    10.714906423      8.640143965     14.459381333 2
     8.721577423      9.679818965     17.846696333 2
    13.284995423      8.473795965     11.215108333 2
    16.173656423      9.183279965      8.444275333 2
     8.912583423      8.368429965     15.934001333 2
    14.284353423      8.014041965      9.139014333 2
    14.876491423     13.667393965     16.645712333 3
    16.796955423     15.103366965     16.293555333 3
    16.619630423     13.563055965     14.426609333 3
    12.891560423     12.705062965     17.670486333 3
    17.108439423     12.442036965     12.329514333 3
    15.123508423     11.479705965     13.354287333 3
    13.380369423     11.584043965     15.573391333 3
    13.203044423     10.043732965     13.706444333 3
    15.000000423     12.573549965     15.000000333 4
%endblock AtomicCoordinatesAndAtomicSpecies

%block DM.InitSpin
%endblock DM.InitSpin

DM.UseSaveDM	True

Siesta2Wannier90.NumberOfBands   226
