&CONTROL
   calculation      = 'nscf'
   verbosity        = 'high'
   restart_mode     = 'from_scratch'
   wf_collect       = .true.
   outdir           = './outdir'
   pseudo_dir       = './pseudo'
/
&SYSTEM
   nbnd             = 1683
   ecutwfc          = 77.0
   ecutrho          = 539.0
   occupations      = 'tetrahedra'
   assume_isolated  = 'esm'
   esm_bc           = 'bc1'
   vdw_corr         = 'dft-d3'
   dftd3_version    = 4
   ntyp             = 4
   nat              = 194
   ibrav            = 0
/
&ELECTRONS
   electron_maxstep = 1000
   conv_thr         = 1e-06
   mixing_beta      = 0.2
   diagonalization  = 'david'
/
&IONS
/
&CELL
/

ATOMIC_SPECIES
Mo 95.95 Mo.pbe-spn-kjpaw_psl.1.0.0.UPF
S 32.06 S.pbe-n-kjpaw_psl.1.0.0.UPF
Pd 106.42 Pd.pbe-spn-kjpaw_psl.1.0.0.UPF
H 1.008 H.pbe-kjpaw_psl.1.0.0.UPF

K_POINTS automatic
2 2 1  0 0 0

CELL_PARAMETERS angstrom
12.60495876880469 0.00000000000000 0.00000000000000
-6.30246677944357 10.91622202271285 0.00000000000000
0.00000000000000 0.00000000000000 36.46614571815195

ATOMIC_POSITIONS angstrom
Mo 0.0000119917 1.8193638619 -9.1672481230 
Mo 1.5756136568 0.9097075315 -3.0554901653 
S 0.0000188998 1.8193822938 -4.6232556019 
S 1.5756321638 0.9096773839 -7.6014065489 
S 1.5756326175 0.9096785128 -10.7330757790 
S 0.0000189190 1.8193860094 -1.4877129945 
Mo 0.0000467649 1.8195140582 3.0556061681 
Mo 1.5756731884 0.9073893383 9.1568849380 
S -0.0001786574 1.8207243862 7.5894600684 
S 1.5756587882 0.9098732468 4.6229913560 
S 1.5756546786 0.9097357951 1.4878781026 
S -0.0028539038 1.8019549617 10.7327258438 
Mo -1.5756053507 4.5484193819 -9.1672481230 
Mo 0.0000378379 3.6387394919 -3.0554952701 
S -1.5755913433 4.5484363582 -4.6232494962 
S 0.0000148214 3.6387329039 -7.6014065489 
S 0.0000152751 3.6387340328 -10.7330757790 
S -1.5755906502 4.5484413613 -1.4877305502 
Mo -1.5753210536 4.5485807410 3.0561199272 
Mo -0.0068571526 3.6262145614 9.1690197055 
S -1.5750218430 4.5487560546 7.5970937369 
S 0.0006955168 3.6390348190 4.6237746550 
S -0.0001258401 3.6388360376 1.4879370371 
S -1.5823498445 4.5444815865 10.7345227576 
Mo -3.1512226931 7.2774749019 -9.1672481230 
Mo -1.5755910988 6.3678216792 -3.0555115988 
S -3.1512162438 7.2774954350 -4.6232578178 
S -1.5756025210 6.3677884239 -7.6014065489 
S -1.5756020673 6.3677895528 -10.7330757790 
S -3.1512127704 7.2774877076 -1.4877200710 
Mo -3.1510704919 7.2774257553 3.0556038415 
Mo -1.5900692417 6.3679574230 9.1689383231 
S -3.1502003735 7.2766681171 7.5894654912 
S -1.5750006833 6.3682230024 4.6237807830 
S -1.5755802437 6.3676115909 1.4879335270 
S -3.1677721548 7.2837298547 10.7327638291 
Mo -4.7268400355 10.0065304219 -9.1672481230 
Mo -3.1512405618 9.0968403586 -3.0554816746 
S -4.7268341792 10.0065523623 -4.6232463762 
S -3.1512198634 9.0968439439 -7.6014065489 
S -3.1512194097 9.0968450728 -10.7330757790 
S -4.7268370797 10.0065537885 -1.4877176751 
Mo -4.7268160706 10.0065376492 3.0556200171 
Mo -3.1532009479 9.0980275060 9.1569439057 
S -4.7267941714 10.0065622699 7.5867799623 
S -3.1510263178 9.0967644063 4.6229915582 
S -3.1511526785 9.0968313416 1.4878751040 
S -4.7267958943 10.0066053149 10.7264762568 
Mo 3.1512517547 1.8193638619 -9.1672481230 
Mo 4.7269020221 0.9097289540 -3.0554823951 
S 3.1512612351 1.8193882564 -4.6232320683 
S 4.7268719268 0.9096773839 -7.6014065489 
S 4.7268723805 0.9096785128 -10.7330757790 
S 3.1512592485 1.8193890201 -1.4877261251 
Mo 3.1512684779 1.8195128752 3.0556024401 
Mo 4.7261525011 0.9092600397 9.1569015420 
S 3.1515268323 1.8207255699 7.5894626920 
S 4.7269424851 0.9097102850 4.6230814233 
S 4.7269223621 0.9097046534 1.4878602631 
S 3.1541994138 1.8019541348 10.7327300494 
Mo 1.5756344123 4.5484193819 -9.1672481230 
Mo 3.1512756394 3.6387769522 -3.0554814834 
S 1.5756504879 4.5484423799 -4.6232390542 
S 3.1512545844 3.6387329039 -7.6014065489 
S 3.1512550381 3.6387340328 -10.7330757790 
S 1.5756466253 4.5484431864 -1.4877251801 
Mo 1.5756627566 4.5487677507 3.0551479750 
Mo 3.1582059595 3.6262167744 9.1690250390 
S 1.5756769775 4.5687030548 7.6350828323 
S 3.1506300226 3.6390291680 4.6237749045 
S 3.1514509733 3.6388356013 1.4879337918 
S 1.5756736092 4.4535999780 10.7711289178 
Mo 0.0000170699 7.2774749019 -9.1672481230 
Mo 1.5756764447 6.3678236689 -3.0554877708 
S 0.0000381981 7.2774979204 -4.6232454413 
S 1.5756372420 6.3677884239 -7.6014065489 
S 1.5756376957 6.3677895528 -10.7330757790 
S 0.0000328088 7.2774946042 -1.4877307940 
Mo 0.0003359814 7.2773218271 3.0551510360 
Mo 1.5756788171 6.3676057223 9.2370324771 
S 0.0176943982 7.2672914197 7.6351522617 
S 1.5756640175 6.3678052708 4.6225686779 
S 1.5756629162 6.3678057845 1.4870147752 
S -0.0814992547 7.3243523682 10.7704643484 
Mo -1.5756002725 10.0065304219 -9.1672481230 
Mo 0.0000873425 9.0968676911 -3.0554912329 
S -1.5755883952 10.0065504530 -4.6232240150 
S 0.0000198996 9.0968439439 -7.6014065489 
S 0.0000203533 9.0968450728 -10.7330757790 
S -1.5755859047 10.0065492576 -1.4877362381 
Mo -1.5754560547 10.0064637577 3.0555987965 
Mo -0.0073052111 9.1091460110 9.1691971631 
S -1.5742302499 10.0060410753 7.5895768488 
S -0.0000310202 9.0961518703 4.6237789146 
S 0.0002130330 9.0969588508 1.4879282366 
S -1.5893058926 10.0178160955 10.7328224890 
Mo 6.3024915177 1.8193638619 -9.1672481230 
Mo 7.8781001445 0.9096521684 -3.0554919963 
S 6.3025008696 1.8193826232 -4.6232480596 
S 7.8781116898 0.9096773839 -7.6014065489 
S 7.8781121435 0.9096785128 -10.7330757790 
S 6.3025042007 1.8193849068 -1.4877147524 
Mo 6.3025066065 1.8193689730 3.0556375608 
Mo 7.8781515276 0.9114406549 9.1608219170 
S 6.3039802866 1.8201953230 7.5910920072 
S 7.8781371092 0.9095843882 4.6232333745 
S 7.8781355434 0.9094407413 1.4880546679 
S 6.3020309588 1.8190992722 10.7286427651 
Mo 4.7268741753 4.5484193819 -9.1672481230 
Mo 6.3024679138 3.6387501714 -3.0554895197 
S 4.7268748770 4.5484386753 -4.6232519432 
S 6.3024943474 3.6387329039 -7.6014065489 
S 6.3024948011 3.6387340328 -10.7330757790 
S 4.7268770533 4.5484432419 -1.4877137856 
Mo 4.7266460501 4.5485724870 3.0561216158 
Mo 6.3040556737 3.6378386752 9.1607981348 
S 4.7263735669 4.5487546303 7.5970945464 
S 6.3024327540 3.6387950991 4.6232307372 
S 6.3023043352 3.6388677212 1.4880559895 
S 4.7337038974 4.5444828261 10.7345236665 
Mo 3.1512568329 7.2774749019 -9.1672481230 
Mo 4.7268384135 6.3678043337 -3.0554959052 
S 3.1512606125 7.2774972547 -4.6232589675 
S 4.7268770050 6.3677884239 -7.6014065489 
S 4.7268774587 6.3677895528 -10.7330757790 
S 3.1512629079 7.2774963749 -1.4877081835 
Mo 3.1509925848 7.2773203274 3.0551513062 
Mo 4.7414303954 6.3679562948 9.1689371282 
S 3.1336657565 7.2672908827 7.6351489505 
S 4.7263322012 6.3682199266 4.6237791863 
S 4.7269095414 6.3676062515 1.4879364820 
S 3.2328523639 7.3243515378 10.7704473892 
Mo 1.5756394905 10.0065304219 -9.1672481230 
Mo 3.1512330605 9.0968514907 -3.0554878870 
S 1.5756499830 10.0065443759 -4.6232632674 
S 3.1512596626 9.0968439439 -7.6014065489 
S 3.1512601163 9.0968450728 -10.7330757790 
S 1.5756503041 10.0065459699 -1.4877044377 
Mo 1.5756629231 10.0062492817 3.0561211051 
Mo 3.1586716407 9.1091517640 9.1691912687 
S 1.5756814787 10.0058179524 7.5972416110 
S 3.1513613084 9.0961500649 4.6237769076 
S 3.1511185108 9.0969593071 1.4879337154 
S 1.5756848217 10.0144429145 10.7346515306 
Mo 9.4537312807 1.8193638619 -9.1672481230 
Mo 11.0293863460 0.9096952246 -3.0554894007 
S 9.4537395970 1.8193770750 -4.6232328036 
S 11.0293514528 0.9096773839 -7.6014065489 
S 11.0293519066 0.9096785128 -10.7330757790 
S 9.4537393632 1.8193794783 -1.4877366147 
Mo 9.4537674065 1.8193782639 3.0556349071 
Mo 11.0301516442 0.9092603305 9.1568988168 
S 9.4523216637 1.8201955461 7.5910902657 
S 11.0293311240 0.9097099599 4.6230861532 
S 11.0293546778 0.9097038523 1.4878619988 
S 9.4542741216 1.8190993088 10.7286409993 
Mo 7.8781139383 4.5484193819 -9.1672481230 
Mo 9.4537539161 3.6387607911 -3.0554933032 
S 7.8781175448 4.5484378232 -4.6232366318 
S 9.4537341104 3.6387329039 -7.6014065489 
S 9.4537345641 3.6387340328 -10.7330757790 
S 7.8781194018 4.5484411585 -1.4877377057 
Mo 7.8781534857 4.5484401012 3.0556352874 
Mo 9.4522541963 3.6378388722 9.1607963923 
S 7.8781546826 4.5467611049 7.5911031560 
S 9.4538524408 3.6387977188 4.6232198939 
S 9.4539783618 3.6388702902 1.4880607876 
S 7.8781561383 4.5489875706 10.7286123435 
Mo 6.3024965959 7.2774749019 -9.1672481230 
Mo 7.8781361655 6.3678242352 -3.0555014130 
S 6.3024973331 7.2774953556 -4.6232392528 
S 7.8781167680 6.3677884239 -7.6014065489 
S 7.8781172217 6.3677895528 -10.7330757790 
S 6.3024989866 7.2774929744 -1.4877349119 
Mo 6.3024022894 7.2774285822 3.0556043696 
Mo 7.8781587954 6.3687053127 9.1568853080 
S 6.3015620938 7.2766670728 7.5894641390 
S 7.8781447280 6.3677535473 4.6230834023 
S 7.8781456177 6.3677750512 1.4878590690 
S 6.3191337138 7.2837310868 10.7327640022 
Mo 4.7268792535 10.0065304219 -9.1672481230 
Mo 6.3025111524 9.0968738021 -3.0554915260 
S 4.7268840634 10.0065452125 -4.6232380477 
S 6.3024994256 9.0968439439 -7.6014065489 
S 6.3024998793 9.0968450728 -10.7330757790 
S 4.7268847312 10.0065459141 -1.4877283294 
Mo 4.7267923214 10.0064634748 3.0556026794 
Mo 6.3045672117 9.0980272191 9.1569414466 
S 4.7255989770 10.0060416329 7.5895730132 
S 6.3023627180 9.0967628972 4.6229910655 
S 6.3024855974 9.0968325547 1.4878746202 
S 4.7406735065 10.0178171976 10.7328182218 
Pd 1.5757220265 6.3696329888 12.1580619898 
H 1.5760036638 6.3861991306 13.7533040351 

