&CONTROL
   calculation      = 'relax'
   restart_mode     = 'from_scratch'
   wf_collect       = .true.
   nstep            = 1000
   tstress          = .false.
   tprnfor          = .true.
   outdir           = './outdir'
   pseudo_dir       = './pseudo'
/
&SYSTEM
   ecutwfc          = 77.0
   ecutrho          = 539.0
   nosym            = .true.
   occupations      = 'smearing'
   degauss          = 0.01
   smearing         = 'gaussian'
   assume_isolated  = 'esm'
   esm_bc           = 'bc1'
   vdw_corr         = 'dft-d3'
   dftd3_version    = 4
   ntyp             = 4
   nat              = 194
   ibrav            = 0
/
&ELECTRONS
   electron_maxstep = 1000
   conv_thr         = 1e-06
   mixing_beta      = 0.2
   diagonalization  = 'david'
/
&IONS
/
&CELL
/

ATOMIC_SPECIES
Mo 95.95 Mo.pbe-spn-kjpaw_psl.1.0.0.UPF
S 32.06 S.pbe-n-kjpaw_psl.1.0.0.UPF
Pt 195.084 Pt.pbe-spfn-kjpaw_psl.1.0.0.UPF
Pd 106.42 Pd.pbe-spn-kjpaw_psl.1.0.0.UPF

K_POINTS automatic
2 2 1  0 0 0

CELL_PARAMETERS angstrom
12.60495876880469 0.00000000000000 0.00000000000000
-6.30246677944357 10.91622202271285 0.00000000000000
0.00000000000000 0.00000000000000 36.46614571815195

ATOMIC_POSITIONS angstrom
Mo 0.0000119917 1.8193638619 -9.1672481230  0 0 0
Mo 1.5756136568 0.9097075315 -3.0554901653  0 0 0
S 0.0000188998 1.8193822938 -4.6232556019  0 0 0
S 1.5756321638 0.9096773839 -7.6014065489  0 0 0
S 1.5756326175 0.9096785128 -10.7330757790  0 0 0
S 0.0000189190 1.8193860094 -1.4877129945  0 0 0
Mo 0.0000177031 1.8196724542 3.0558901650 
Mo 1.5756721726 0.9079489759 9.1562279759 
S 0.0008060353 1.8239426431 7.5882126078 
S 1.5756578018 0.9096365801 4.6229671663 
S 1.5756583695 0.9100660872 1.4879561498 
S -0.0069730089 1.7984310010 10.7307291613 
Mo -1.5756053507 4.5484193819 -9.1672481230  0 0 0
Mo 0.0000378379 3.6387394919 -3.0554952701  0 0 0
S -1.5755913433 4.5484363582 -4.6232494962  0 0 0
S 0.0000148214 3.6387329039 -7.6014065489  0 0 0
S 0.0000152751 3.6387340328 -10.7330757790  0 0 0
S -1.5755906502 4.5484413613 -1.4877305502  0 0 0
Mo -1.5753142206 4.5485790055 3.0560233537 
Mo -0.0116596072 3.6247465378 9.1756759735 
S -1.5740105499 4.5493479983 7.6018651009 
S 0.0005975416 3.6393625110 4.6238986168 
S 0.0000002089 3.6388996024 1.4880837469 
S -1.5831693619 4.5440576322 10.7384531494 
Mo -3.1512226931 7.2774749019 -9.1672481230  0 0 0
Mo -1.5755910988 6.3678216792 -3.0555115988  0 0 0
S -3.1512162438 7.2774954350 -4.6232578178  0 0 0
S -1.5756025210 6.3677884239 -7.6014065489  0 0 0
S -1.5756020673 6.3677895528 -10.7330757790  0 0 0
S -3.1512127704 7.2774877076 -1.4877200710  0 0 0
Mo -3.1509438944 7.2773117360 3.0558898022 
Mo -1.5935595121 6.3646817614 9.1756759875 
S -3.1468628875 7.2758807674 7.5882146844 
S -1.5747604118 6.3679666043 4.6238995349 
S -1.5754597724 6.3676816650 1.4880825927 
S -3.1728472227 7.2819020151 10.7307305983 
Mo -4.7268400355 10.0065304219 -9.1672481230  0 0 0
Mo -3.1512405618 9.0968403586 -3.0554816746  0 0 0
S -4.7268341792 10.0065523623 -4.6232463762  0 0 0
S -3.1512198634 9.0968439439 -7.6014065489  0 0 0
S -3.1512194097 9.0968450728 -10.7330757790  0 0 0
S -4.7268370797 10.0065537885 -1.4877176751  0 0 0
Mo -4.7268106494 10.0065377506 3.0552148596 
Mo -3.1527018399 9.0977542083 9.1562279230 
S -4.7267936360 10.0065624613 7.5870303459 
S -3.1512338225 9.0968762515 4.6229669171 
S -3.1508608573 9.0966614460 1.4879554470 
S -4.7267974863 10.0065603155 10.7246294992 
Mo 3.1512517547 1.8193638619 -9.1672481230  0 0 0
Mo 4.7269020221 0.9097289540 -3.0554823951  0 0 0
S 3.1512612351 1.8193882564 -4.6232320683  0 0 0
S 4.7268719268 0.9096773839 -7.6014065489  0 0 0
S 4.7268723805 0.9096785128 -10.7330757790  0 0 0
S 3.1512592485 1.8193890201 -1.4877261251  0 0 0
Mo 3.1513030702 1.8196742344 3.0558906254 
Mo 4.7259657318 0.9091618153 9.1531886016 
S 3.1505410480 1.8239406769 7.5882131116 
S 4.7272532873 0.9098911154 4.6232568497 
S 4.7267875976 0.9096228294 1.4880184474 
S 3.1583175946 1.7984302153 10.7307315121 
Mo 1.5756344123 4.5484193819 -9.1672481230  0 0 0
Mo 3.1512756394 3.6387769522 -3.0554814834  0 0 0
S 1.5756504879 4.5484423799 -4.6232390542  0 0 0
S 3.1512545844 3.6387329039 -7.6014065489  0 0 0
S 3.1512550381 3.6387340328 -10.7330757790  0 0 0
S 1.5756466253 4.5484431864 -1.4877251801  0 0 0
Mo 1.5756656917 4.5488624059 3.0556113520 
Mo 3.1630151151 3.6247450278 9.1756750834 
S 1.5756796648 4.5768880466 7.6512141641 
S 3.1507286237 3.6393637905 4.6239034095 
S 3.1513262668 3.6388993455 1.4880799415 
S 1.5756807418 4.3938478393 10.8158771544 
Mo 0.0000170699 7.2774749019 -9.1672481230  0 0 0
Mo 1.5756764447 6.3678236689 -3.0554877708  0 0 0
S 0.0000381981 7.2774979204 -4.6232454413  0 0 0
S 1.5756372420 6.3677884239 -7.6014065489  0 0 0
S 1.5756376957 6.3677895528 -10.7330757790  0 0 0
S 0.0000328088 7.2774946042 -1.4877307940  0 0 0
Mo 0.0004235476 7.2772673680 3.0556114833 
Mo 1.5756816725 6.3678196041 9.2311548708 
S 0.0246915742 7.2632867655 7.6512151566 
S 1.5756682773 6.3677977603 4.6240693279 
S 1.5756676051 6.3677974152 1.4875898651 
S -0.1338288288 7.3548101396 10.8158727268 
Mo -1.5756002725 10.0065304219 -9.1672481230  0 0 0
Mo 0.0000873425 9.0968676911 -3.0554912329  0 0 0
S -1.5755883952 10.0065504530 -4.6232240150  0 0 0
S 0.0000198996 9.0968439439 -7.6014065489  0 0 0
S 0.0000203533 9.0968450728 -10.7330757790  0 0 0
S -1.5755859047 10.0065492576 -1.4877362381  0 0 0
Mo -1.5752946461 10.0064083485 3.0558906757 
Mo -0.0062186224 9.1140356926 9.1756744244 
S -1.5719950946 10.0036355687 7.5882139971 
S 0.0003096647 9.0960620524 4.6239042570 
S 0.0002074570 9.0968122891 1.4880810528 
S -1.5902014660 10.0231242394 10.7307322320 
Mo 6.3024915177 1.8193638619 -9.1672481230  0 0 0
Mo 7.8781001445 0.9096521684 -3.0554919963  0 0 0
S 6.3025008696 1.8193826232 -4.6232480596  0 0 0
S 7.8781116898 0.9096773839 -7.6014065489  0 0 0
S 7.8781121435 0.9096785128 -10.7330757790  0 0 0
S 6.3025042007 1.8193849068 -1.4877147524  0 0 0
Mo 6.3025746418 1.8194025368 3.0553588529 
Mo 7.8781498204 0.9120081076 9.1645067239 
S 6.3055282851 1.8211233862 7.5908644318 
S 7.8781379093 0.9096989014 4.6230373437 
S 7.8781379607 0.9092980419 1.4878384943 
S 6.3002047385 1.8180484335 10.7287763150 
Mo 4.7268741753 4.5484193819 -9.1672481230  0 0 0
Mo 6.3024679138 3.6387501714 -3.0554895197  0 0 0
S 4.7268748770 4.5484386753 -4.6232519432  0 0 0
S 6.3024943474 3.6387329039 -7.6014065489  0 0 0
S 6.3024948011 3.6387340328 -10.7330757790  0 0 0
S 4.7268770533 4.5484432419 -1.4877137856  0 0 0
Mo 4.7266360486 4.5485778131 3.0560240722 
Mo 6.3045266873 3.6376113986 9.1645087348 
S 4.7253638122 4.5493452809 7.6018614293 
S 6.3025311365 3.6387359879 4.6230344714 
S 6.3021861010 3.6389357952 1.4878397896 
S 4.7345231287 4.5440604944 10.7384509242 
Mo 3.1512568329 7.2774749019 -9.1672481230  0 0 0
Mo 4.7268384135 6.3678043337 -3.0554959052  0 0 0
S 3.1512606125 7.2774972547 -4.6232589675  0 0 0
S 4.7268770050 6.3677884239 -7.6014065489  0 0 0
S 4.7268774587 6.3677895528 -10.7330757790  0 0 0
S 3.1512629079 7.2774963749 -1.4877081835  0 0 0
Mo 3.1509087007 7.2772649109 3.0556116080 
Mo 4.7449197028 6.3646839755 9.1756741967 
S 3.1266773767 7.2632889302 7.6512119517 
S 4.7260895006 6.3679664076 4.6238986900 
S 4.7267886737 6.3676810140 1.4880837316 
S 3.2851710922 7.3547951931 10.8158741036 
Mo 1.5756394905 10.0065304219 -9.1672481230  0 0 0
Mo 3.1512330605 9.0968514907 -3.0554878870  0 0 0
S 1.5756499830 10.0065443759 -4.6232632674  0 0 0
S 3.1512596626 9.0968439439 -7.6014065489  0 0 0
S 3.1512601163 9.0968450728 -10.7330757790  0 0 0
S 1.5756503041 10.0065459699 -1.4877044377  0 0 0
Mo 1.5756678424 10.0062325623 3.0560259943 
Mo 3.1575867949 9.1140325328 9.1756730593 
S 1.5756805356 10.0047672967 7.6018607835 
S 3.1510311696 9.0960601273 4.6238992334 
S 3.1511316404 9.0968100299 1.4880855965 
S 1.5756861223 10.0153435365 10.7384500770 
Mo 9.4537312807 1.8193638619 -9.1672481230  0 0 0
Mo 11.0293863460 0.9096952246 -3.0554894007  0 0 0
S 9.4537395970 1.8193770750 -4.6232328036  0 0 0
S 11.0293514528 0.9096773839 -7.6014065489  0 0 0
S 11.0293519066 0.9096785128 -10.7330757790  0 0 0
S 9.4537393632 1.8193794783 -1.4877366147  0 0 0
Mo 9.4537035801 1.8194044118 3.0553587444 
Mo 11.0303372057 0.9091649198 9.1531836845 
S 9.4507711583 1.8211256965 7.5908630344 
S 11.0290277223 0.9098899313 4.6232557865 
S 11.0294908467 0.9096210740 1.4880182636 
S 9.4560975601 1.8180476154 10.7287738427 
Mo 7.8781139383 4.5484193819 -9.1672481230  0 0 0
Mo 9.4537539161 3.6387607911 -3.0554933032  0 0 0
S 7.8781175448 4.5484378232 -4.6232366318  0 0 0
S 9.4537341104 3.6387329039 -7.6014065489  0 0 0
S 9.4537345641 3.6387340328 -10.7330757790  0 0 0
S 7.8781194018 4.5484411585 -1.4877377057  0 0 0
Mo 7.8781437589 4.5483630642 3.0553591072 
Mo 9.4517818644 3.6376127738 9.1645095913 
S 7.8781550888 4.5449817575 7.5908635727 
S 9.4537523651 3.6387359037 4.6230393040 
S 9.4540953599 3.6389354624 1.4878345440 
S 7.8781538224 4.5511346497 10.7287746529 
Mo 6.3024965959 7.2774749019 -9.1672481230  0 0 0
Mo 7.8781361655 6.3678242352 -3.0555014130  0 0 0
S 6.3024973331 7.2774953556 -4.6232392528  0 0 0
S 7.8781167680 6.3677884239 -7.6014065489  0 0 0
S 7.8781172217 6.3677895528 -10.7330757790  0 0 0
S 6.3024989866 7.2774929744 -1.4877349119  0 0 0
Mo 6.3022757194 7.2773119644 3.0558906030 
Mo 7.8781602071 6.3689083215 9.1531849427 
S 6.2982312293 7.2758827081 7.5882092339 
S 7.8781456382 6.3673901354 4.6232548884 
S 7.8781440994 6.3679254769 1.4880197771 
S 6.3242106375 7.2819049041 10.7307266426 
Mo 4.7268792535 10.0065304219 -9.1672481230  0 0 0
Mo 6.3025111524 9.0968738021 -3.0554915260  0 0 0
S 4.7268840634 10.0065452125 -4.6232380477  0 0 0
S 6.3024994256 9.0968439439 -7.6014065489  0 0 0
S 6.3024998793 9.0968450728 -10.7330757790  0 0 0
S 4.7268847312 10.0065459141 -1.4877283294  0 0 0
Mo 4.7266385776 10.0064062634 3.0558903078 
Mo 6.3040692404 9.0977562952 9.1562229786 
S 4.7233658298 10.0036411331 7.5882076804 
S 6.3025711039 9.0968763515 4.6229685495 
S 6.3021987647 9.0966610539 1.4879529659 
S 4.7415699381 10.0231276206 10.7307257976 
Pt 1.5756719481 6.3678051749 11.9732701897 
Pd 11.0300000000 0.9090000000 12.3290000000 

