&CONTROL
   calculation      = 'nscf'
   verbosity        = 'high'
   restart_mode     = 'from_scratch'
   wf_collect       = .true.
   outdir           = './outdir'
   pseudo_dir       = './pseudo'
/
&SYSTEM
   nbnd             = 1683
   ecutwfc          = 77.0
   ecutrho          = 539.0
   occupations      = 'tetrahedra'
   assume_isolated  = 'esm'
   esm_bc           = 'bc1'
   vdw_corr         = 'dft-d3'
   dftd3_version    = 4
   ntyp             = 4
   nat              = 194
   ibrav            = 0
/
&ELECTRONS
   electron_maxstep = 1000
   conv_thr         = 1e-06
   mixing_beta      = 0.2
   diagonalization  = 'david'
/
&IONS
/
&CELL
/

ATOMIC_SPECIES
Mo 95.95 Mo.pbe-spn-kjpaw_psl.1.0.0.UPF
S 32.06 S.pbe-n-kjpaw_psl.1.0.0.UPF
Pd 106.42 Pd.pbe-spn-kjpaw_psl.1.0.0.UPF
H 1.008 H.pbe-kjpaw_psl.1.0.0.UPF

K_POINTS automatic
2 2 1  0 0 0

CELL_PARAMETERS angstrom
12.60495876880469 0.00000000000000 0.00000000000000
-6.30246677944357 10.91622202271285 0.00000000000000
0.00000000000000 0.00000000000000 36.46614571815195

ATOMIC_POSITIONS angstrom
Mo 0.0000119917 1.8193638619 -9.1672481230 
Mo 1.5756136568 0.9097075315 -3.0554901653 
S 0.0000188998 1.8193822938 -4.6232556019 
S 1.5756321638 0.9096773839 -7.6014065489 
S 1.5756326175 0.9096785128 -10.7330757790 
S 0.0000189190 1.8193860094 -1.4877129945 
Mo -0.0000509344 1.8198282310 3.0555687243 
Mo 1.5605531353 0.9155962962 9.1873173075 
S 0.0028202695 1.8217221860 7.5954119360 
S 1.5756636698 0.9100128401 4.6225129381 
S 1.5751322144 0.9104439454 1.4868852529 
S -0.0364569800 1.8079362373 10.7380205719 
Mo -1.5756053507 4.5484193819 -9.1672481230 
Mo 0.0000378379 3.6387394919 -3.0554952701 
S -1.5755913433 4.5484363582 -4.6232494962 
S 0.0000148214 3.6387329039 -7.6014065489 
S 0.0000152751 3.6387340328 -10.7330757790 
S -1.5755906502 4.5484413613 -1.4877305502 
Mo -1.5757019041 4.5488405579 3.0553026227 
Mo -0.0225677729 3.6302156131 9.1758610397 
S -1.5818349914 4.5488405635 7.5915421883 
S -0.0000351735 3.6394359212 4.6236764874 
S -0.0001373918 3.6389088959 1.4875814004 
S -1.6016723694 4.5518066047 10.7310675184 
Mo -3.1512226931 7.2774749019 -9.1672481230 
Mo -1.5755910988 6.3678216792 -3.0555115988 
S -3.1512162438 7.2774954350 -4.6232578178 
S -1.5756025210 6.3677884239 -7.6014065489 
S -1.5756020673 6.3677895528 -10.7330757790 
S -3.1512127704 7.2774877076 -1.4877200710 
Mo -3.1514003211 7.2777073048 3.0553457267 
Mo -1.5996928198 6.3685899405 9.1629505917 
S -3.1611262635 7.2808212748 7.5846651905 
S -1.5753339920 6.3682586196 4.6232367237 
S -1.5759044643 6.3679458654 1.4874045714 
S -3.1739953322 7.2858970806 10.7231575476 
Mo -4.7268400355 10.0065304219 -9.1672481230 
Mo -3.1512405618 9.0968403586 -3.0554816746 
S -4.7268341792 10.0065523623 -4.6232463762 
S -3.1512198634 9.0968439439 -7.6014065489 
S -3.1512194097 9.0968450728 -10.7330757790 
S -4.7268370797 10.0065537885 -1.4877176751 
Mo -4.7272734041 10.0070996965 3.0545085054 
Mo -3.1557226205 9.1061927024 9.1519558799 
S -4.7358817345 10.0181038593 7.5958427829 
S -3.1523574919 9.0973075473 4.6223994251 
S -3.1512130741 9.0972135999 1.4876077314 
S -4.7356642326 9.9921725467 10.7320212226 
Mo 3.1512517547 1.8193638619 -9.1672481230 
Mo 4.7269020221 0.9097289540 -3.0554823951 
S 3.1512612351 1.8193882564 -4.6232320683 
S 4.7268719268 0.9096773839 -7.6014065489 
S 4.7268723805 0.9096785128 -10.7330757790 
S 3.1512592485 1.8193890201 -1.4877261251 
Mo 3.1505599834 1.8199671207 3.0550082864 
Mo 4.7403322794 0.8952973163 9.1038469667 
S 3.1350143676 1.8271767793 7.6153359862 
S 4.7258614943 0.9104475453 4.6237448205 
S 4.7265786113 0.9098183618 1.4879862946 
S 3.0485730761 1.8525532299 10.8596016783 
Mo 1.5756344123 4.5484193819 -9.1672481230 
Mo 3.1512756394 3.6387769522 -3.0554814834 
S 1.5756504879 4.5484423799 -4.6232390542 
S 3.1512545844 3.6387329039 -7.6014065489 
S 3.1512550381 3.6387340328 -10.7330757790 
S 1.5756466253 4.5484431864 -1.4877251801 
Mo 1.5754224323 4.5485028365 3.0553516785 
Mo 3.1381413781 3.6247745036 9.2080900014 
S 1.5741003243 4.5651420947 7.6527017598 
S 3.1504841706 3.6388864941 4.6234244410 
S 3.1504820276 3.6388962024 1.4869413844 
S 1.5471851054 4.4559847794 10.8005236464 
Mo 0.0000170699 7.2774749019 -9.1672481230 
Mo 1.5756764447 6.3678236689 -3.0554877708 
S 0.0000381981 7.2774979204 -4.6232454413 
S 1.5756372420 6.3677884239 -7.6014065489 
S 1.5756376957 6.3677895528 -10.7330757790 
S 0.0000328088 7.2774946042 -1.4877307940 
Mo -0.0000320214 7.2773639287 3.0548402401 
Mo 1.5645532776 6.3726495585 9.2268983179 
S 0.0149379084 7.2586551861 7.6298941184 
S 1.5753897890 6.3677567001 4.6232621883 
S 1.5755059793 6.3675883820 1.4873050563 
S -0.1117981342 7.3388400685 10.7806982209 
Mo -1.5756002725 10.0065304219 -9.1672481230 
Mo 0.0000873425 9.0968676911 -3.0554912329 
S -1.5755883952 10.0065504530 -4.6232240150 
S 0.0000198996 9.0968439439 -7.6014065489 
S 0.0000203533 9.0968450728 -10.7330757790 
S -1.5755859047 10.0065492576 -1.4877362381 
Mo -1.5758572322 10.0067789333 3.0558375144 
Mo -0.0122272413 9.1038338690 9.1549794122 
S -1.5746990970 9.9960657936 7.5632714795 
S 0.0002630618 9.0961111069 4.6227004162 
S -0.0003338018 9.0971804090 1.4875482768 
S -1.5865285716 10.0271078992 10.7131221964 
Mo 6.3024915177 1.8193638619 -9.1672481230 
Mo 7.8781001445 0.9096521684 -3.0554919963 
S 6.3025008696 1.8193826232 -4.6232480596 
S 7.8781116898 0.9096773839 -7.6014065489 
S 7.8781121435 0.9096785128 -10.7330757790 
S 6.3025042007 1.8193849068 -1.4877147524 
Mo 6.3019320623 1.8196590409 3.0555929763 
Mo 7.8749905409 0.9096957812 9.1429208736 
S 6.3046538215 1.8194878824 7.5652427896 
S 7.8779166621 0.9093329143 4.6222600582 
S 7.8777397104 0.9098164507 1.4877747674 
S 6.2901989688 1.8017616834 10.7101670552 
Mo 4.7268741753 4.5484193819 -9.1672481230 
Mo 6.3024679138 3.6387501714 -3.0554895197 
S 4.7268748770 4.5484386753 -4.6232519432 
S 6.3024943474 3.6387329039 -7.6014065489 
S 6.3024948011 3.6387340328 -10.7330757790 
S 4.7268770533 4.5484432419 -1.4877137856 
Mo 4.7258336897 4.5486186667 3.0549701449 
Mo 6.2889131201 3.6267227702 9.1605133493 
S 4.7042737841 4.5428383905 7.6115884179 
S 6.3013503063 3.6396790493 4.6224334373 
S 6.3018157950 3.6388346162 1.4874978793 
S 4.7348224381 4.5511115469 10.7470422380 
Mo 3.1512568329 7.2774749019 -9.1672481230 
Mo 4.7268384135 6.3678043337 -3.0554959052 
S 3.1512606125 7.2774972547 -4.6232589675 
S 4.7268770050 6.3677884239 -7.6014065489 
S 4.7268774587 6.3677895528 -10.7330757790 
S 3.1512629079 7.2774963749 -1.4877081835 
Mo 3.1509392472 7.2772499876 3.0550877824 
Mo 4.7314452183 6.3658750685 9.1760745015 
S 3.1252242297 7.2585605561 7.6382795107 
S 4.7258845843 6.3675628172 4.6236522985 
S 4.7266675484 6.3679029374 1.4874322394 
S 3.2381177175 7.3388991605 10.7869746432 
Mo 1.5756394905 10.0065304219 -9.1672481230 
Mo 3.1512330605 9.0968514907 -3.0554878870 
S 1.5756499830 10.0065443759 -4.6232632674 
S 3.1512596626 9.0968439439 -7.6014065489 
S 3.1512601163 9.0968450728 -10.7330757790 
S 1.5756503041 10.0065459699 -1.4877044377 
Mo 1.5756426052 10.0061858955 3.0552288737 
Mo 3.1514934388 9.1074771843 9.1608948219 
S 1.5719622647 9.9997822777 7.5823243109 
S 3.1509822877 9.0959363397 4.6232847716 
S 3.1513432205 9.0969282476 1.4875604857 
S 1.5676976927 10.0129525139 10.7162128560 
Mo 9.4537312807 1.8193638619 -9.1672481230 
Mo 11.0293863460 0.9096952246 -3.0554894007 
S 9.4537395970 1.8193770750 -4.6232328036 
S 11.0293514528 0.9096773839 -7.6014065489 
S 11.0293519066 0.9096785128 -10.7330757790 
S 9.4537393632 1.8193794783 -1.4877366147 
Mo 9.4534714569 1.8196917594 3.0552827182 
Mo 11.0180531945 0.9087960379 9.1479231763 
S 9.4501132640 1.8213352162 7.5760109617 
S 11.0291317559 0.9100891674 4.6231429907 
S 11.0291829455 0.9097860166 1.4880413494 
S 9.4393602120 1.8175132437 10.7168745536 
Mo 7.8781139383 4.5484193819 -9.1672481230 
Mo 9.4537539161 3.6387607911 -3.0554933032 
S 7.8781175448 4.5484378232 -4.6232366318 
S 9.4537341104 3.6387329039 -7.6014065489 
S 9.4537345641 3.6387340328 -10.7330757790 
S 7.8781194018 4.5484411585 -1.4877377057 
Mo 7.8775840778 4.5486859993 3.0549565844 
Mo 9.4421845481 3.6365213735 9.1528779218 
S 7.8607459553 4.5432118732 7.5882950095 
S 9.4532871042 3.6393949894 4.6226014308 
S 9.4536525825 3.6390336326 1.4875422290 
S 7.8676091427 4.5430678757 10.7208041803 
Mo 6.3024965959 7.2774749019 -9.1672481230 
Mo 7.8781361655 6.3678242352 -3.0555014130 
S 6.3024973331 7.2774953556 -4.6232392528 
S 7.8781167680 6.3677884239 -7.6014065489 
S 7.8781172217 6.3677895528 -10.7330757790 
S 6.3024989866 7.2774929744 -1.4877349119 
Mo 6.3019272234 7.2775175132 3.0555753197 
Mo 7.8693562623 6.3670352853 9.1516365470 
S 6.2889607728 7.2745687151 7.5902174787 
S 7.8776887228 6.3677623635 4.6228412853 
S 7.8777639779 6.3682803839 1.4876325918 
S 6.3135829761 7.2807185102 10.7297464828 
Mo 4.7268792535 10.0065304219 -9.1672481230 
Mo 6.3025111524 9.0968738021 -3.0554915260 
S 4.7268840634 10.0065452125 -4.6232380477 
S 6.3024994256 9.0968439439 -7.6014065489 
S 6.3024998793 9.0968450728 -10.7330757790 
S 4.7268847312 10.0065459141 -1.4877283294 
Mo 4.7266216286 10.0065189797 3.0557656983 
Mo 6.2948128325 9.0982792691 9.1571191686 
S 4.7215277107 10.0037042143 7.5818563465 
S 6.3026983182 9.0970397693 4.6230000977 
S 6.3019471139 9.0969214963 1.4876771446 
S 4.7240838175 10.0177208486 10.7255354643 
Pd 1.5610355365 6.3856174920 12.1073013938 
H 2.1575407613 2.3875499194 11.8338740857 

