&CONTROL
   calculation      = 'relax'
   restart_mode     = 'from_scratch'
   wf_collect       = .true.
   nstep            = 1000
   tstress          = .false.
   tprnfor          = .true.
   outdir           = './outdir'
   pseudo_dir       = './pseudo'
/
&SYSTEM
   ecutwfc          = 77.0
   ecutrho          = 539.0
   nosym            = .true.
   occupations      = 'smearing'
   degauss          = 0.01
   smearing         = 'gaussian'
   assume_isolated  = 'esm'
   esm_bc           = 'bc1'
   vdw_corr         = 'dft-d3'
   dftd3_version    = 4
   ntyp             = 3
   nat              = 195
   ibrav            = 0
/
&ELECTRONS
   electron_maxstep = 1000
   conv_thr         = 1e-06
   mixing_beta      = 0.2
   diagonalization  = 'david'
/
&IONS
/
&CELL
/

ATOMIC_SPECIES
Mo 95.95 Mo.pbe-spn-kjpaw_psl.1.0.0.UPF
S 32.06 S.pbe-n-kjpaw_psl.1.0.0.UPF
Pd 106.42 Pd.pbe-spn-kjpaw_psl.1.0.0.UPF

K_POINTS automatic
2 2 1  0 0 0

CELL_PARAMETERS angstrom
12.60495876880469 0.00000000000000 0.00000000000000
-6.30246677944357 10.91622202271285 0.00000000000000
0.00000000000000 0.00000000000000 36.46614571815195

ATOMIC_POSITIONS angstrom
Mo 0.0000119917 1.8193638619 -9.1672481230  0 0 0
Mo 1.5756136568 0.9097075315 -3.0554901653  0 0 0
S 0.0000188998 1.8193822938 -4.6232556019  0 0 0
S 1.5756321638 0.9096773839 -7.6014065489  0 0 0
S 1.5756326175 0.9096785128 -10.7330757790  0 0 0
S 0.0000189190 1.8193860094 -1.4877129945  0 0 0
Mo 0.0002796628 1.8203916815 3.0574526907 
Mo 1.5705350558 0.9163927969 9.1749307038 
S 0.0002090990 1.8257257102 7.5886177768 
S 1.5763267587 0.9112162505 4.6249844861 
S 1.5757969224 0.9106373944 1.4893714274 
S -0.0169864265 1.8178557663 10.7334958453 
Mo -1.5756053507 4.5484193819 -9.1672481230  0 0 0
Mo 0.0000378379 3.6387394919 -3.0554952701  0 0 0
S -1.5755913433 4.5484363582 -4.6232494962  0 0 0
S 0.0000148214 3.6387329039 -7.6014065489  0 0 0
S 0.0000152751 3.6387340328 -10.7330757790  0 0 0
S -1.5755906502 4.5484413613 -1.4877305502  0 0 0
Mo -1.5753382514 4.5492423819 3.0574630629 
Mo -0.0373569649 3.6338240935 9.1639561806 
S -1.5844217128 4.5695307335 7.5878660210 
S 0.0007454300 3.6400561554 4.6256012615 
S 0.0000944793 3.6394881021 1.4895050667 
S -1.6011233533 4.5593376850 10.7327169916 
Mo -3.1512226931 7.2774749019 -9.1672481230  0 0 0
Mo -1.5755910988 6.3678216792 -3.0555115988  0 0 0
S -3.1512162438 7.2774954350 -4.6232578178  0 0 0
S -1.5756025210 6.3677884239 -7.6014065489  0 0 0
S -1.5756020673 6.3677895528 -10.7330757790  0 0 0
S -3.1512127704 7.2774877076 -1.4877200710  0 0 0
Mo -3.1510145267 7.2782848878 3.0571677418 
Mo -1.5859923578 6.3842665154 9.1745448045 
S -3.1436158578 7.2958614739 7.5922610364 
S -1.5749417492 6.3689167915 4.6249640833 
S -1.5754690202 6.3684400403 1.4894050761 
S -3.1628740115 7.2962703377 10.7341481789 
Mo -4.7268400355 10.0065304219 -9.1672481230  0 0 0
Mo -3.1512405618 9.0968403586 -3.0554816746  0 0 0
S -4.7268341792 10.0065523623 -4.6232463762  0 0 0
S -3.1512198634 9.0968439439 -7.6014065489  0 0 0
S -3.1512194097 9.0968450728 -10.7330757790  0 0 0
S -4.7268370797 10.0065537885 -1.4877176751  0 0 0
Mo -4.7267465462 10.0076537717 3.0571996249 
Mo -3.1504719766 9.1136761632 9.1637076424 
S -4.7224202530 10.0274018003 7.5927672335 
S -3.1512624427 9.0978491181 4.6247383553 
S -3.1510447209 9.0977455937 1.4895392566 
S -4.7314289403 10.0109079567 10.7348763466 
Mo 3.1512517547 1.8193638619 -9.1672481230  0 0 0
Mo 4.7269020221 0.9097289540 -3.0554823951  0 0 0
S 3.1512612351 1.8193882564 -4.6232320683  0 0 0
S 4.7268719268 0.9096773839 -7.6014065489  0 0 0
S 4.7268723805 0.9096785128 -10.7330757790  0 0 0
S 3.1512592485 1.8193890201 -1.4877261251  0 0 0
Mo 3.1513913940 1.8206888665 3.0570432154 
Mo 4.7311264789 0.9166022146 9.1768958146 
S 3.1525772124 1.8553845562 7.6384444601 
S 4.7264367486 0.9111165773 4.6255010225 
S 4.7271046450 0.9104040182 1.4896895025 
S 3.1553038890 1.7416355650 10.7997565393 
Mo 1.5756344123 4.5484193819 -9.1672481230  0 0 0
Mo 3.1512756394 3.6387769522 -3.0554814834  0 0 0
S 1.5756504879 4.5484423799 -4.6232390542  0 0 0
S 3.1512545844 3.6387329039 -7.6014065489  0 0 0
S 3.1512550381 3.6387340328 -10.7330757790  0 0 0
S 1.5756466253 4.5484431864 -1.4877251801  0 0 0
Mo 1.5758038015 4.5494066859 3.0570930287 
Mo 3.1563572975 3.6421381602 9.2296407414 
S 1.5887005866 4.5730729961 7.6742563110 
S 3.1508215817 3.6399233332 4.6256538610 
S 3.1513831329 3.6397840214 1.4892215517 
S 1.4619444976 4.4992724925 10.7884872114 
Mo 0.0000170699 7.2774749019 -9.1672481230  0 0 0
Mo 1.5756764447 6.3678236689 -3.0554877708  0 0 0
S 0.0000381981 7.2774979204 -4.6232454413  0 0 0
S 1.5756372420 6.3677884239 -7.6014065489  0 0 0
S 1.5756376957 6.3677895528 -10.7330757790  0 0 0
S 0.0000328088 7.2774946042 -1.4877307940  0 0 0
Mo 0.0003491533 7.2781373538 3.0571463588 
Mo 1.5682122933 6.3948537796 9.2310989263 
S 0.0199647214 7.2834270620 7.6395268948 
S 1.5754750313 6.3681578762 4.6258664123 
S 1.5758256830 6.3685800158 1.4893334110 
S -0.0797974721 7.3441251975 10.8005152271 
Mo -1.5756002725 10.0065304219 -9.1672481230  0 0 0
Mo 0.0000873425 9.0968676911 -3.0554912329  0 0 0
S -1.5755883952 10.0065504530 -4.6232240150  0 0 0
S 0.0000198996 9.0968439439 -7.6014065489  0 0 0
S 0.0000203533 9.0968450728 -10.7330757790  0 0 0
S -1.5755859047 10.0065492576 -1.4877362381  0 0 0
Mo -1.5754885880 10.0074699434 3.0576942609 
Mo -0.0058753405 9.1204459978 9.1770131653 
S -1.5712570224 10.0246060115 7.5983139682 
S 0.0000719060 9.0970933800 4.6256193342 
S -0.0000731612 9.0976743602 1.4897010594 
S -1.5809921650 10.0190374525 10.7443392973 
Mo 6.3024915177 1.8193638619 -9.1672481230  0 0 0
Mo 7.8781001445 0.9096521684 -3.0554919963  0 0 0
S 6.3025008696 1.8193826232 -4.6232480596  0 0 0
S 7.8781116898 0.9096773839 -7.6014065489  0 0 0
S 7.8781121435 0.9096785128 -10.7330757790  0 0 0
S 6.3025042007 1.8193849068 -1.4877147524  0 0 0
Mo 6.3023481390 1.8202630211 3.0576605904 
Mo 7.8769718322 0.9252343308 9.1656191539 
S 6.2992055936 1.8336493786 7.5990620974 
S 7.8781302864 0.9105029527 4.6248938943 
S 7.8777798714 0.9101097467 1.4895829269 
S 6.3084245910 1.8357774786 10.7371607989 
Mo 4.7268741753 4.5484193819 -9.1672481230  0 0 0
Mo 6.3024679138 3.6387501714 -3.0554895197  0 0 0
S 4.7268748770 4.5484386753 -4.6232519432  0 0 0
S 6.3024943474 3.6387329039 -7.6014065489  0 0 0
S 6.3024948011 3.6387340328 -10.7330757790  0 0 0
S 4.7268770533 4.5484432419 -1.4877137856  0 0 0
Mo 4.7265441637 4.5493160255 3.0575650116 
Mo 6.3170048570 3.6536119488 9.1706720556 
S 4.7085141059 4.5551772475 7.6413970824 
S 6.3019501077 3.6399041934 4.6253991551 
S 6.3022786874 3.6393740746 1.4896762856 
S 4.8181779252 4.6122245079 10.7826805287 
Mo 3.1512568329 7.2774749019 -9.1672481230  0 0 0
Mo 4.7268384135 6.3678043337 -3.0554959052  0 0 0
S 3.1512606125 7.2774972547 -4.6232589675  0 0 0
S 4.7268770050 6.3677884239 -7.6014065489  0 0 0
S 4.7268774587 6.3677895528 -10.7330757790  0 0 0
S 3.1512629079 7.2774963749 -1.4877081835  0 0 0
Mo 3.1510494188 7.2778998099 3.0577428901 
Mo 4.7505141032 6.3966573882 9.1786293796 
S 3.1343933098 7.2818408157 7.6423050963 
S 4.7264450584 6.3683705398 4.6261284117 
S 4.7268216804 6.3685858470 1.4898551160 
S 3.2417637869 7.3497872577 10.7832366810 
Mo 1.5756394905 10.0065304219 -9.1672481230  0 0 0
Mo 3.1512330605 9.0968514907 -3.0554878870  0 0 0
S 1.5756499830 10.0065443759 -4.6232632674  0 0 0
S 3.1512596626 9.0968439439 -7.6014065489  0 0 0
S 3.1512601163 9.0968450728 -10.7330757790  0 0 0
S 1.5756503041 10.0065459699 -1.4877044377  0 0 0
Mo 1.5755257953 10.0070544731 3.0576899938 
Mo 3.1573836563 9.1263908930 9.1713738891 
S 1.5724715235 10.0200144171 7.5996973987 
S 3.1511490818 9.0971077177 4.6254956492 
S 3.1510095643 9.0972101456 1.4897673164 
S 1.5777362227 10.0275010880 10.7371586233 
Mo 9.4537312807 1.8193638619 -9.1672481230  0 0 0
Mo 11.0293863460 0.9096952246 -3.0554894007  0 0 0
S 9.4537395970 1.8193770750 -4.6232328036  0 0 0
S 11.0293514528 0.9096773839 -7.6014065489  0 0 0
S 11.0293519066 0.9096785128 -10.7330757790  0 0 0
S 9.4537393632 1.8193794783 -1.4877366147  0 0 0
Mo 9.4536805989 1.8199803097 3.0568164423 
Mo 11.0262232614 0.9211433603 9.1559883331 
S 9.4474416737 1.8317291383 7.5892469304 
S 11.0292278684 0.9106342828 4.6245296127 
S 11.0296244328 0.9102379557 1.4893902435 
S 9.4526880953 1.8360230311 10.7262233180 
Mo 7.8781139383 4.5484193819 -9.1672481230  0 0 0
Mo 9.4537539161 3.6387607911 -3.0554933032  0 0 0
S 7.8781175448 4.5484378232 -4.6232366318  0 0 0
S 9.4537341104 3.6387329039 -7.6014065489  0 0 0
S 9.4537345641 3.6387340328 -10.7330757790  0 0 0
S 7.8781194018 4.5484411585 -1.4877377057  0 0 0
Mo 7.8779863340 4.5490687675 3.0572453049 
Mo 9.4472109246 3.6550550187 9.1548481345 
S 7.8733481061 4.5647154216 7.5863584319 
S 9.4537620859 3.6392214050 4.6245246406 
S 9.4538182329 3.6394776724 1.4893962304 
S 7.8907648256 4.5698773200 10.7305090718 
Mo 6.3024965959 7.2774749019 -9.1672481230  0 0 0
Mo 7.8781361655 6.3678242352 -3.0555014130  0 0 0
S 6.3024973331 7.2774953556 -4.6232392528  0 0 0
S 7.8781167680 6.3677884239 -7.6014065489  0 0 0
S 7.8781172217 6.3677895528 -10.7330757790  0 0 0
S 6.3024989866 7.2774929744 -1.4877349119  0 0 0
Mo 6.3023425379 7.2781872633 3.0576649954 
Mo 7.8819541155 6.3867607760 9.1554429659 
S 6.3039249155 7.2944792548 7.5866327638 
S 7.8783757610 6.3685158360 4.6247093829 
S 7.8779688063 6.3684790579 1.4895902937 
S 6.3307285016 7.3092942497 10.7341410100 
Mo 4.7268792535 10.0065304219 -9.1672481230  0 0 0
Mo 6.3025111524 9.0968738021 -3.0554915260  0 0 0
S 4.7268840634 10.0065452125 -4.6232380477  0 0 0
S 6.3024994256 9.0968439439 -7.6014065489  0 0 0
S 6.3024998793 9.0968450728 -10.7330757790  0 0 0
S 4.7268847312 10.0065459141 -1.4877283294  0 0 0
Mo 4.7267211095 10.0071605984 3.0572603090 
Mo 6.3058857859 9.1146408614 9.1563831064 
S 4.7241118076 10.0190898977 7.5878296672 
S 6.3024973918 9.0980380623 4.6247721265 
S 6.3025408760 9.0973885724 1.4896018956 
S 4.7366760474 10.0318508229 10.7316100554 
Pd 1.6368387209 6.3385709918 12.1405718418 
Pd 3.1382756261 3.7309117644 12.1403835949 
Pd 3.1570000000 9.1260000000 12.2520000000 

