&CONTROL
   calculation      = 'relax'
   restart_mode     = 'from_scratch'
   wf_collect       = .true.
   nstep            = 9999
   tstress          = .false.
   tprnfor          = .true.
   outdir           = '/scratch/calc/outdir'
   pseudo_dir       = './pseudo'
/
&SYSTEM
   ecutwfc          = 36
   ecutrho          = 400
   nosym            = .true.
   occupations      = 'smearing'
   degauss          = 0.01
   smearing         = 'gaussian'
   vdw_corr         = 'dft-d3'
   dftd3_version    = 4
   ntyp             = 4
   nat              = 144
   ibrav            = 0
/
&ELECTRONS
   electron_maxstep = 9999
   conv_thr         = 1e-06
   mixing_beta      = 0.2
   diagonalization  = 'david'
/
&IONS
/
&CELL
/

ATOMIC_SPECIES
O 15.999 O.pbe-n-kjpaw_psl.1.0.0.UPF
N 14.007 N.pbe-n-kjpaw_psl.1.0.0.UPF
C 12.011 C.pbe-n-kjpaw_psl.1.0.0.UPF
H 1.008 H.pbe-kjpaw_psl.1.0.0.UPF

K_POINTS automatic
2 2 2  0 0 0

CELL_PARAMETERS angstrom
4.73700000000000 0.00000000000000 0.00000000000000
0.00000000000000 32.45000000000000 0.00000000000000
-1.69497479068173 0.00000000000000 9.35468382463851

ATOMIC_POSITIONS angstrom
O 1.3528096861 18.1145635000 5.1899785859 
O 0.8417281278 1.8895635000 8.8420471510 
O 1.6892155232 14.3354365000 4.1647052387 
O 2.2002970815 30.5604365000 0.5126366736 
O 1.9958693186 21.2109425000 8.4304410628 
O 0.1986684953 4.9859425000 5.6015846742 
O 1.0461558907 11.2390575000 0.9242427619 
O 2.8433567140 27.4640575000 3.7530991504 
N 1.6190053532 19.6322500000 6.8476285596 
N 0.5755324608 3.4072500000 7.1843971773 
N 1.4230198561 12.8177500000 2.5070552650 
N 2.4664927486 29.0427500000 2.1702866473 
C -0.0031160427 15.8041235000 8.1479296113 
C 2.1976538567 32.0291235000 5.8840961257 
C 3.0451412520 16.6458765000 1.2067542134 
C 0.8443713527 0.4208765000 3.4705876989 
C -0.2710529024 17.0820045000 8.7195007929 
C 2.4655907164 0.8570045000 5.3125249440 
C 3.3130781117 15.3679955000 0.6351830317 
C 0.5764344929 31.5929955000 4.0421588806 
C 2.0818586873 17.5281920000 0.5519263457 
C 1.8076539173 1.3031920000 4.1254155667 
C 0.9601665220 14.9218080000 8.8027574790 
C 1.2343712920 31.1468080000 5.2292682580 
C 1.7947704629 18.8109405000 1.0252733472 
C 2.0947421417 2.5859405000 3.6520685651 
C 1.2472547464 13.6390595000 8.3294104775 
C 0.9472830676 29.8640595000 5.7026152595 
C 0.8847376588 19.6358195000 0.3928967206 
C 3.0047749459 3.4108195000 4.2844451917 
C 2.1572875505 12.8141805000 8.9617871040 
C 0.0372502635 29.0391805000 5.0702386330 
C -1.4875180419 19.2178635000 8.6306312966 
C 3.6820558559 2.9928635000 5.4013944403 
C 4.5295432512 13.2321365000 0.7240525280 
C -0.6400306465 29.4571365000 3.9532893843 
C -1.2146836141 17.9412805000 8.0843177613 
C 3.4092214281 1.7162805000 5.9477079757 
C 4.2567088234 14.5087195000 1.2703660634 
C -0.3671962188 30.7337195000 3.4069758489 
C 2.8717197045 17.5233245000 6.9037566626 
C -0.6771818905 1.2983245000 7.1282690744 
C 0.1703055048 14.9266755000 2.4509271621 
C 3.7192070998 31.1516755000 2.2264147503 
C 3.1553796474 16.2931450000 6.3630559375 
C -0.9608418334 0.0681450000 7.6689697994 
C -0.1133544381 16.1568550000 2.9916278871 
C 4.0028670427 32.3818550000 1.6857140252 
C -0.6592972115 15.4513920000 6.9720458545 
C 2.8538350255 31.6763920000 7.0599798825 
C 3.7013224208 16.9986080000 2.3826379701 
C 0.1881901838 0.7736080000 2.2947039422 
C 1.8975812970 18.4088850000 6.2330258324 
C 0.2969565170 2.1838850000 7.7989999046 
C 1.1444439123 14.0411150000 3.1216579923 
C 2.7450686923 30.2661150000 1.5556839200 
C 2.2578380489 20.1160795000 7.9963837333 
C -0.0633002349 3.8910795000 6.0356420037 
C 0.7841871604 12.3339205000 1.3583000913 
C 3.1053254443 28.5589205000 3.3190418210 
C 0.6453406457 20.5246250000 6.1768977294 
C 1.5491971683 4.2996250000 7.8551280075 
C 2.3966845636 11.9253750000 3.1777860952 
C 1.4928280411 28.1503750000 1.4995558171 
C 1.3184428055 21.4007750000 5.1600435977 
C 0.8760950085 5.1757750000 8.8719821393 
C 1.7235824039 11.0492250000 4.1946402270 
C 2.1659302008 27.2742250000 0.4827016854 
C 0.3042585072 22.1730850000 4.3443151682 
C 3.5852540975 5.9480850000 0.3330267442 
C 2.7377667021 10.2769150000 5.0103686565 
C -0.5432288881 26.5019150000 9.0216570805 
C -0.2833976549 21.6149450000 3.2451398188 
C 4.1729102595 5.3899450000 1.4322020936 
C 3.3254228642 10.8350550000 6.1095440059 
C -1.1308850502 27.0600550000 7.9224817311 
C 3.5991022082 22.3223550000 2.4892813657 
C 0.2904103965 6.0973550000 2.1880605466 
C -0.5570769989 10.1276450000 6.8654024589 
C 2.7516148129 26.3526450000 7.1666232781 
C 3.2519986435 23.6008850000 2.8363401356 
C 0.6375139612 7.3758850000 1.8410017767 
C -0.2099734341 8.8491150000 6.5183436890 
C 2.4045112481 25.0741150000 7.5136820479 
C 3.7808116282 24.1557800000 3.9439347005 
C 0.1087009764 7.9307800000 0.7334072119 
C -0.7387864189 8.2942200000 5.4107491242 
C 2.9333242329 24.5192200000 8.6212766128 
C -0.0801023248 23.4451250000 4.7035350270 
C 2.2746401387 7.2201250000 9.3284907099 
C 3.1221275341 9.0048750000 4.6511487976 
C 0.7673850706 25.2298750000 0.0261931147 
H 2.2382943604 19.1227850000 1.8035830414 
H 1.6512182443 2.8977850000 2.8737588709 
H 0.8037308490 13.3272150000 7.5511007832 
H 1.3908069650 29.5522150000 6.4809249537 
H 0.7236634890 20.5051550000 0.7380845538 
H 3.1658491156 4.2801550000 3.9392573586 
H 2.3183617203 11.9448450000 8.6165992709 
H -0.1238239063 28.1698450000 5.4154264661 
H 2.7183921021 16.0140750000 5.5669723440 
H -0.5238542881 32.2390750000 8.4650533929 
H 0.3236331073 16.4359250000 3.7877114806 
H 3.5658794974 0.2109250000 0.8896304317 
H -0.4704263804 14.6089900000 6.5754072603 
H 2.6649641943 30.8339900000 7.4566184766 
H 3.5124515897 17.8410100000 2.7792765643 
H 0.3770610150 1.6160100000 1.8980653480 
H -0.0099085290 19.9924450000 5.7409694632 
H 2.2044463430 3.7674450000 8.2910562738 
H 3.0519337384 12.4575550000 3.6137143615 
H 0.8375788663 28.6825550000 1.0636275509 
H 0.2259277028 21.0730300000 6.8289191920 
H 1.9686101112 4.8480300000 7.2031065450 
H 2.8160975065 11.3769700000 2.5257646327 
H 1.0734150981 27.6019700000 2.1515772797 
H 1.8862225130 22.0140800000 5.6081329529 
H 0.3083153010 5.7890800000 8.4238927841 
H 1.1558026963 10.4359200000 3.7465508718 
H 2.7337099083 26.6609200000 0.9307910406 
H 1.8353808324 20.8556150000 4.5763113270 
H 2.0541317723 4.6306150000 0.1010305853 
H 1.2066443769 11.5943850000 4.7783724976 
H 0.9878934371 27.8193850000 9.2536532393 
H -0.0842633776 20.7128350000 3.0140791283 
H 3.9737759822 4.4878350000 1.6632627840 
H 3.1262885869 11.7371650000 6.3406046963 
H -0.9317507729 27.9621650000 7.6914210406 
H 3.2281239957 21.9329550000 1.7053588612 
H 0.6613886090 5.7079550000 2.9719830511 
H -0.1860987863 10.5170450000 7.6493249634 
H 2.3806366003 26.7420450000 6.3827007736 
H 2.6459804015 24.0973700000 2.3012522209 
H 1.2435322032 7.8723700000 2.3760896915 
H 0.3960448078 8.3526300000 7.0534316038 
H 1.7984930062 24.5776300000 6.9785941332 
H 3.5427251089 25.0416650000 4.1965111637 
H 0.3467874958 8.8166650000 0.4808307486 
H -0.5006998996 7.4083350000 5.1581726609 
H 2.6952377136 23.6333350000 8.8738530761 
H 0.2810281004 23.8345250000 5.4921348734 
H 1.9135097136 7.6095250000 8.5398908635 
H 2.7609971089 8.6154750000 3.8625489512 
H 1.1285154957 24.8404750000 0.8147929611 

