&CONTROL
   calculation      = 'relax'
   restart_mode     = 'restart'
   wf_collect       = .true.
   nstep            = 9999
   tstress          = .false.
   tprnfor          = .true.
   outdir           = '/scratch/calc/pyoutdir'
   pseudo_dir       = './pseudo'
/
&SYSTEM
   ecutwfc          = 36
   ecutrho          = 400
   nosym            = .true.
   occupations      = 'smearing'
   degauss          = 0.01
   smearing         = 'gaussian'
   vdw_corr         = 'dft-d3'
   dftd3_version    = 4
   ntyp             = 5
   nat              = 184
   ibrav            = 0
/
&ELECTRONS
   electron_maxstep = 9999
   conv_thr         = 1e-06
   mixing_beta      = 0.2
   diagonalization  = 'ppcg'
/
&IONS
/
&CELL
/

ATOMIC_SPECIES
Cl 35.45 Cl.pbe-n-kjpaw_psl.1.0.0.UPF
O 15.999 O.pbe-n-kjpaw_psl.1.0.0.UPF
N 14.007 N.pbe-n-kjpaw_psl.1.0.0.UPF
H 1.008 H.pbe-kjpaw_psl.1.0.0.UPF
C 12.011 C.pbe-n-kjpaw_psl.1.0.0.UPF

K_POINTS automatic
2 2 2  0 0 0

CELL_PARAMETERS angstrom
19.60000000000000 0.00000000000000 0.00000000000000
0.00000000000000 7.90000000000000 0.00000000000000
-4.93973407700586 0.00000000000000 16.89257313876329

ATOMIC_POSITIONS angstrom
Cl 14.2902557104 0.2101400000 9.0020522256 
Cl -2.0998568259 4.1601400000 16.3368074825 
Cl 0.3700102126 7.6898600000 7.8905209131 
Cl 16.7601227489 3.7398600000 0.5557656563 
Cl 16.6704802251 0.9432600000 7.0019715660 
Cl 0.4596527364 4.8932600000 1.4443150034 
Cl -2.0102143021 6.9567400000 9.8906015727 
Cl 14.2006131866 3.0067400000 15.4482581354 
Cl 13.2292084876 3.2121400000 3.4612882361 
Cl 3.9009244739 7.1621400000 4.9849983332 
Cl 1.4310574354 4.6878600000 13.4312849026 
Cl 10.7593414491 0.7378600000 11.9075748055 
Cl 16.1055850924 2.3060100000 4.2619962029 
Cl 1.0245478691 6.2560100000 4.1842903665 
Cl -1.4453191694 5.5939900000 12.6305769359 
Cl 13.6357180539 1.6439900000 12.7082827723 
Cl 12.8010988018 7.2245500000 16.3131578801 
Cl -0.6106999173 3.2745500000 9.0257018280 
Cl 1.8591671212 0.6754500000 0.5794152587 
Cl 15.2709658403 4.6254500000 7.8668713107 
Cl 9.7432406912 6.4969600000 15.7979343994 
Cl 2.4471581933 2.5469600000 9.5409253088 
Cl 4.9170252318 1.4030400000 1.0946387394 
Cl 12.2131077297 5.3530400000 7.3516478300 
O 11.1550993436 0.5601100000 8.8517083247 
O 1.0352995408 4.5101100000 16.4871513834 
O 3.5051665793 7.3398900000 8.0408648141 
O 13.6249663822 3.3898900000 0.4054217553 
N 9.3095155341 2.9893600000 9.3719995774 
N 2.8808833504 6.9393600000 15.9668601308 
N 5.3507503889 4.9106400000 7.5205735614 
N 11.7793825726 0.9606400000 0.9257130080 
H 10.2614083148 3.1365686000 9.1077828409 
H 1.9289905697 7.0865686000 16.2310768672 
H 4.3988576082 4.7634314000 7.7847902978 
H 12.7312753533 0.8134314000 0.6614962715 
C 6.3146584254 1.5112700000 7.9040349716 
C 10.8154745361 5.4612700000 0.5422515978 
C 8.3456074976 6.3887300000 8.9885381671 
C 3.8447913869 2.4387300000 16.3503215410 
H 5.3374016492 1.4265267000 8.0897688133 
H 11.7927313123 5.3765267000 0.3565177561 
H 9.3228642738 6.4734733000 8.8028043255 
H 2.8675346107 2.5234733000 16.5360553827 
C 7.1347725193 2.1883000000 8.7993413480 
C 5.0556263652 6.1383000000 16.5395183602 
C 7.5254934037 5.7117000000 8.0932317908 
C 9.6046395578 1.7617000000 0.3530547786 
C 8.4941504507 2.3060100000 8.5408849790 
C 3.6962484338 6.2560100000 16.7979747292 
C 6.1661154723 5.5939900000 8.3516881598 
C 10.9640174892 1.6439900000 0.0945984096 
C 9.0329203147 1.7459000000 7.3888114909 
C 8.0972126468 5.6959000000 1.0574750785 
C 5.6273456083 6.1541000000 9.5037616479 
C 6.5630532762 2.2041000000 15.8350980603 
C 8.2142722474 1.0688700000 6.4951943719 
C 8.9158607141 5.0188700000 1.9510921975 
C 6.4459936756 6.8311300000 10.3973787669 
C 5.7444052089 2.8811300000 14.9414809412 
H 8.6020536535 0.6662939000 5.6659548490 
H 8.5280793080 4.6162939000 2.7803317203 
H 6.0582122695 7.2337061000 11.2266182897 
H 6.1321866150 3.2837061000 14.1122414184 
C 6.8553882894 0.9511600000 6.7519614836 
C 10.2747446721 4.9011600000 1.6943250858 
C 7.8048776336 6.9488400000 10.1406116552 
C 4.3855212509 2.9988400000 15.1982480529 
H 6.2652312233 0.4642119000 6.1087091910 
H 10.8649017382 4.4142119000 2.3375773784 
H 8.3950346997 7.4357881000 10.7838639478 
H 3.7953641848 3.4857881000 14.5549957604 
C 12.4653971794 2.0816500000 5.9191576278 
C 4.6647357821 6.0316500000 2.5271289416 
C 2.1948687436 5.8183500000 10.9734155109 
C 9.9955301409 1.8683500000 14.3654441972 
C 12.7139738738 1.4030400000 7.1067055195 
C 4.4161590877 5.3530400000 1.3395810499 
C 1.9462920492 6.4969600000 9.7858676193 
C 10.2441068353 2.5469600000 15.5529920889 
C 14.0126750859 1.0372700000 7.4377999530 
C 3.1174578756 4.9872700000 1.0084866164 
C 0.6475908371 6.8627300000 9.4547731858 
C 11.5428080474 2.9127300000 15.8840865224 
C 15.0608396036 1.3509000000 6.5813464949 
C 2.0692933579 5.3009000000 1.8649400745 
C -0.4005736806 6.5491000000 10.3112266439 
C 12.5909725651 2.5991000000 15.0276330642 
C 14.8103029092 2.0295100000 5.3937986032 
C 2.3198300523 5.9795100000 3.0524879662 
C -0.1500369862 5.8704900000 11.4987745356 
C 12.3404358707 1.9204900000 13.8400851726 
C 13.5130677237 2.3952800000 5.0643934270 
C 3.6170652378 6.3452800000 3.3818931424 
C 1.1471981993 5.5047200000 11.8281797118 
C 11.0432006852 1.5547200000 13.5106799964 
C 11.0484920094 2.4276700000 5.8448303060 
C 6.0816409521 6.3776700000 2.6014562634 
C 3.6117739136 5.4723300000 11.0477428328 
C 8.5786249709 1.5223300000 14.2911168754 
C 10.7039445844 5.4391500000 13.3772286686 
C 1.4864543001 1.4891500000 11.9616310396 
C 3.9563213386 2.4608500000 3.5153444702 
C 13.1738116229 6.4108500000 4.9309420992 
C 11.0294552522 6.0861600000 14.5630873029 
C 1.1609436323 2.1361600000 10.7757724052 
C 3.6308106708 1.8138400000 2.3294858358 
C 13.4993222907 5.7638400000 6.1168007335 
C 12.3430551347 6.4629900000 14.8097188708 
C -0.1526562502 2.5129900000 10.5291408374 
C 2.3172107883 1.4370100000 2.0828542680 
C 14.8129221732 5.3870100000 6.3634323014 
C 13.3311443494 6.1920200000 13.8704918042 
C -1.1407454649 2.2420200000 11.4683679039 
C 1.3291215736 1.7079800000 3.0220813345 
C 15.8010113879 5.6579800000 5.4242052349 
C 13.0056336816 5.5450100000 12.6846331699 
C -0.8152347971 1.5950100000 12.6542265382 
C 1.6546322414 2.3549900000 4.2079399689 
C 15.4755007201 6.3049900000 4.2383466005 
C 11.6920337991 5.1689700000 12.4380016021 
C 0.4983650854 1.2189700000 12.9008581061 
C 2.9682321239 2.7310300000 4.4545715367 
C 14.1619008376 6.6810300000 3.9917150327 
N 10.4449785708 1.7988300000 7.0239319111 
N 6.6851543907 5.7488300000 1.4223546583 
N 4.2152873522 6.1011700000 9.8686412277 
N 7.9751115323 2.1511700000 15.4702184805 
C 11.4303696808 1.2245000000 7.8567357668 
C 5.6997632807 5.1745000000 0.5895508025 
C 3.2298962422 6.6755000000 9.0358373719 
C 8.9605026423 2.7255000000 16.3030223362 
C 7.4432547702 3.4072700000 10.9751047683 
C 4.7471441143 7.3572700000 14.3637549399 
C 7.2170111528 4.4927300000 5.9174683705 
C 9.9131218087 0.5427300000 2.5288181989 
H 7.1027413292 3.8202267000 11.8199192435 
H 5.0876575552 7.7702267000 13.5189404646 
H 7.5575245937 4.0797733000 5.0726538953 
H 9.5726083677 0.1297733000 3.3736326741 
O 10.3820869259 2.9743500000 5.0137157076 
O 6.7480460356 6.9243500000 3.4325708618 
O 4.2781789970 4.9256500000 11.8788574312 
O 7.9122198874 0.9756500000 13.4600022770 
C 6.6312203516 2.7776400000 10.1862216027 
C 5.5591785329 6.7276400000 15.1526381055 
C 8.0290455714 5.1223600000 6.7063515361 
C 9.1010873901 1.1723600000 1.7399350333 
H 5.6755938758 2.6606726000 10.4545601270 
H 6.5148050087 6.6106726000 14.8842995812 
H 8.9846720472 5.2393274000 6.4380130118 
H 8.1454609143 1.2893274000 2.0082735576 
C 11.1098743867 4.4398000000 11.2048437629 
C 1.0805244978 0.4898000000 14.1340159452 
C 3.5503915363 3.4602000000 5.6877293758 
C 13.5797414252 7.4102000000 2.7585571936 
O 11.6771052557 3.9184000000 10.2436563513 
O 0.5132936288 7.8684000000 15.0952033568 
O 2.9831606673 3.9816000000 6.6489167874 
O 14.1469722942 0.0316000000 1.7973697820 
C 8.8376094517 3.5131300000 10.6372533055 
C 3.3527894328 7.4631300000 14.7016064027 
C 5.8226564713 4.3868700000 6.2553198333 
C 11.3074764902 0.4368700000 2.1909667361 
C 9.6440035456 4.2280800000 11.5325596818 
C 2.5463953389 0.2780800000 13.8063000263 
C 5.0162623774 3.6719200000 5.3600134569 
C 12.1138705841 7.6219200000 3.0862731125 
Cl 14.2022457905 5.1484300000 11.4210686991 
Cl -2.0118469060 1.1984300000 13.9177910090 
Cl 0.4580201325 2.7515700000 5.4715044396 
Cl 16.6721128290 6.7015700000 2.9747821297 
Cl 14.9877760191 6.5538400000 14.1036093136 
Cl -2.7973771346 2.6038400000 11.2352503946 
Cl -0.3275100961 1.3461600000 2.7889638252 
Cl 17.4576430576 5.2961600000 5.6573227442 
O 8.2611634620 4.9217000000 13.4329741599 
O 3.9292354225 0.9717000000 11.9058855482 
O 6.3991024610 2.9783000000 3.4595989788 
O 10.7310305005 6.9283000000 4.9866875906 
C 9.3485940959 4.8055700000 12.9650498840 
C 2.8418047886 0.8555700000 12.3738098241 
C 5.3116718271 3.0944300000 3.9275232548 
C 11.8184611344 7.0444300000 4.5187633146 

