&CONTROL
   calculation      = 'relax'
   restart_mode     = 'restart'
   wf_collect       = .true.
   nstep            = 1000
   tstress          = .true.
   tprnfor          = .true.
   outdir           = './outdir'
   pseudo_dir       = './pseudo'
/
&SYSTEM
   ecutwfc          = 77.0
   ecutrho          = 539.0
   nosym            = .false.
   occupations      = 'smearing'
   degauss          = 0.01
   smearing         = 'gaussian'
   assume_isolated  = 'esm'
   esm_bc           = 'bc1'
   vdw_corr         = 'dft-d3'
   dftd3_version    = 4
   ntyp             = 2
   nat              = 96
   ibrav            = 0
/
&ELECTRONS
   electron_maxstep = 1000
   conv_thr         = 1e-06
   mixing_beta      = 0.2
   diagonalization  = 'david'
/
&IONS
/
&CELL
/

ATOMIC_SPECIES
Mo 95.95 Mo.pbe-spn-kjpaw_psl.1.0.0.UPF
C 12.011 C.pbe-n-kjpaw_psl.1.0.0.UPF

K_POINTS automatic
2 2 1  0 0 0

CELL_PARAMETERS angstrom
15.29519024596491 0.00000000000000 0.00000000000000
5.82218119873852 12.76453997753448 0.00000000000000
0.00000000000000 0.00000000000000 20.53628251436607

ATOMIC_POSITIONS angstrom
Mo 6.0583755008 0.1869964740 2.0511340689 
Mo 3.4152820501 1.4239154915 1.7371024003 
Mo 7.2390973366 2.8652350915 2.7681412572 
Mo 6.9711237093 5.1279694653 1.0200880927 
Mo 5.8075487182 2.4863239744 0.2519507068 
Mo 0.7550582885 1.2850390645 0.5161693812 
Mo 4.5788418396 4.0655612067 2.5052518490 
Mo 1.9837364161 3.9276343098 1.2830051852 
C 5.0691385554 5.8675381883 1.5091843667 
C 1.4934759655 2.1256669811 2.2790323431 
C 5.3172524245 2.1256577437 2.2790588767 
C 8.8929236807 5.8675380913 1.5091881807 
Mo 3.1472816801 2.3474147381 -0.9689578951  0 0 0
Mo 8.1517833523 3.5843337556 -1.2829895637  0 0 0
Mo 4.3280035158 5.0256533556 -0.2519507068  0 0 0
Mo 6.9711204879 0.9061177406 -2.0000038713  0 0 0
Mo 2.8964548974 4.6467422385 -2.7681412572  0 0 0
Mo 5.4915595907 3.4454573286 -2.5039225827  0 0 0
Mo 9.3153431418 6.2259794709 -0.5148401149  0 0 0
Mo 6.7202377183 6.0880525739 -1.7370867788  0 0 0
C 5.0691353340 1.6456864636 -1.5109075972  0 0 0
C 6.2299772677 4.2860852452 -0.7410596209  0 0 0
C 2.4061586038 4.2860760078 -0.7410330873  0 0 0
C 1.2453253363 1.6456863666 -1.5109037833  0 0 0
Mo 8.9694661002 6.5692664628 2.0511340689 
Mo 6.3263726495 7.8061854802 1.7371024003 
Mo 10.1501879359 9.2475050803 2.7681412572 
Mo 9.8822143086 11.5102394540 1.0200880927 
Mo 8.7186393175 8.8685939631 0.2519507068 
Mo 3.6661488879 7.6673090532 0.5161693812 
Mo 7.4899324390 10.4478311955 2.5052518490 
Mo 4.8948270154 10.3099042986 1.2830051852 
C 7.9802291548 12.2498081770 1.5091843667 
C 4.4045665649 8.5079369698 2.2790323431 
C 8.2283430239 8.5079277324 2.2790588767 
C 11.8040142800 12.2498080800 1.5091881807 
Mo 6.0583722794 8.7296847269 -0.9689578951  0 0 0
Mo 11.0628739517 9.9666037443 -1.2829895637  0 0 0
Mo 7.2390941152 11.4079233444 -0.2519507068  0 0 0
Mo 9.8822110872 7.2883877294 -2.0000038713  0 0 0
Mo 5.8075454968 11.0290122273 -2.7681412572  0 0 0
Mo 8.4026501901 9.8277273173 -2.5039225827  0 0 0
Mo 12.2264337412 12.6082494596 -0.5148401149  0 0 0
Mo 9.6313283176 12.4703225627 -1.7370867788  0 0 0
C 7.9802259334 8.0279564524 -1.5109075972  0 0 0
C 9.1410678671 10.6683552339 -0.7410596209  0 0 0
C 5.3172492031 10.6683459965 -0.7410330873  0 0 0
C 4.1564159356 8.0279563554 -1.5109037833  0 0 0
Mo 13.7059706238 0.1869964740 2.0511340689 
Mo 11.0628771731 1.4239154915 1.7371024003 
Mo 14.8866924595 2.8652350915 2.7681412572 
Mo 14.6187188323 5.1279694653 1.0200880927 
Mo 13.4551438411 2.4863239744 0.2519507068 
Mo 8.4026534115 1.2850390645 0.5161693812 
Mo 12.2264369626 4.0655612067 2.5052518490 
Mo 9.6313315390 3.9276343098 1.2830051852 
C 12.7167336784 5.8675381883 1.5091843667 
C 9.1410710885 2.1256669811 2.2790323431 
C 12.9648475475 2.1256577437 2.2790588767 
C 16.5405188036 5.8675380913 1.5091881807 
Mo 10.7948768030 2.3474147381 -0.9689578951  0 0 0
Mo 15.7993784753 3.5843337556 -1.2829895637  0 0 0
Mo 11.9755986388 5.0256533556 -0.2519507068  0 0 0
Mo 14.6187156109 0.9061177406 -2.0000038713  0 0 0
Mo 10.5440500204 4.6467422385 -2.7681412572  0 0 0
Mo 13.1391547137 3.4454573286 -2.5039225827  0 0 0
Mo 16.9629382648 6.2259794709 -0.5148401149  0 0 0
Mo 14.3678328413 6.0880525739 -1.7370867788  0 0 0
C 12.7167304570 1.6456864636 -1.5109075972  0 0 0
C 13.8775723907 4.2860852452 -0.7410596209  0 0 0
C 10.0537537268 4.2860760078 -0.7410330873  0 0 0
C 8.8929204593 1.6456863666 -1.5109037833  0 0 0
Mo 16.6170612232 6.5692664628 2.0511340689 
Mo 13.9739677725 7.8061854802 1.7371024003 
Mo 17.7977830589 9.2475050803 2.7681412572 
Mo 17.5298094316 11.5102394540 1.0200880927 
Mo 16.3662344405 8.8685939631 0.2519507068 
Mo 11.3137440108 7.6673090532 0.5161693812 
Mo 15.1375275620 10.4478311955 2.5052518490 
Mo 12.5424221384 10.3099042986 1.2830051852 
C 15.6278242778 12.2498081770 1.5091843667 
C 12.0521616879 8.5079369698 2.2790323431 
C 15.8759381469 8.5079277324 2.2790588767 
C 19.4516094030 12.2498080800 1.5091881807 
Mo 13.7059674024 8.7296847269 -0.9689578951  0 0 0
Mo 18.7104690747 9.9666037443 -1.2829895637  0 0 0
Mo 14.8866892381 11.4079233444 -0.2519507068  0 0 0
Mo 17.5298062102 7.2883877294 -2.0000038713  0 0 0
Mo 13.4551406197 11.0290122273 -2.7681412572  0 0 0
Mo 16.0502453130 9.8277273173 -2.5039225827  0 0 0
Mo 19.8740288642 12.6082494596 -0.5148401149  0 0 0
Mo 17.2789234406 12.4703225627 -1.7370867788  0 0 0
C 15.6278210564 8.0279564524 -1.5109075972  0 0 0
C 16.7886629901 10.6683552339 -0.7410596209  0 0 0
C 12.9648443261 10.6683459965 -0.7410330873  0 0 0
C 11.8040110586 8.0279563554 -1.5109037833  0 0 0

