&CONTROL
   calculation      = 'scf'
   restart_mode     = 'from_scratch'
   wf_collect       = .true.
   tstress          = .false.
   tprnfor          = .true.
   outdir           = './outdir'
   pseudo_dir       = './pseudo'
/
&SYSTEM
   ecutwfc          = 77.0
   ecutrho          = 539.0
   nosym            = .true.
   occupations      = 'smearing'
   degauss          = 0.01
   smearing         = 'gaussian'
   assume_isolated  = 'esm'
   esm_bc           = 'bc1'
   vdw_corr         = 'dft-d3'
   dftd3_version    = 4
   ntyp             = 4
   nat              = 146
   ibrav            = 0
/
&ELECTRONS
   electron_maxstep = 1000
   conv_thr         = 1e-06
   mixing_beta      = 0.2
   diagonalization  = 'david'
/
&IONS
/
&CELL
/

ATOMIC_SPECIES
Mo 95.95 Mo.pbe-spn-kjpaw_psl.1.0.0.UPF
S 32.06 S.pbe-n-kjpaw_psl.1.0.0.UPF
Pd 106.42 Pd.pbe-spn-kjpaw_psl.1.0.0.UPF
H 1.008 H.pbe-kjpaw_psl.1.0.0.UPF

K_POINTS automatic
2 2 1  0 0 0

CELL_PARAMETERS angstrom
12.61532217525308 0.00000000000000 0.00000000000000
-6.30767370294872 10.92519700214573 0.00000000000000
0.00000000000000 0.00000000000000 30.30125956094956

ATOMIC_POSITIONS angstrom
Mo 1.5739878132 2.7144246961 6.0743232035 
Mo 1.5769197498 0.9104407117 -6.0872367793 
Mo 0.0001086205 1.8210856570 -0.0009296324 
S 0.0000044503 0.0000077495 -7.6506323570 
S 1.5764528751 0.9108023624 -1.5671731545 
S -0.0001370355 1.8211958088 4.5023815593 
S 0.0000053241 0.0000068460 -4.5222282367 
S 1.5773984233 0.9103028820 1.5652426630 
S -0.0091624425 1.8093065087 7.6423987297 
Mo -0.0076859356 5.4611211044 6.0908142152 
Mo 0.0000011799 3.6417399547 -6.0872367793 
Mo -1.5767094763 4.5522976800 -0.0008708783 
S -1.5769141197 2.7313069925 -7.6506323570 
S -0.0000803554 3.6417507029 -1.5663650086 
S -1.5702985096 4.5558069169 4.5096928742 
S -1.5769132459 2.7313060890 -4.5222282367 
S 0.0010727132 3.6424563698 1.5667131259 
S -1.5917575696 4.5449742069 7.6494203685 
Mo -1.5760440541 8.1933720260 6.0768165896 
Mo -1.5769173901 6.3730391977 -6.0872367793 
Mo -3.1537528567 7.2833809838 -0.0026248811 
S -3.1538326896 5.4626062355 -7.6506323570 
S -1.5768053332 6.3723871999 -1.5674600852 
S -3.1491373528 7.2835469174 4.5072954271 
S -3.1538318159 5.4626053320 -4.5222282367 
S -1.5767839052 6.3737914040 1.5650361173 
S -3.1526737482 7.2829094570 7.6442608825 
Mo 3.1565396098 -0.0039939370 6.0732441838 
Mo -3.1538359601 9.1043384407 -6.0872367793 
Mo -4.7308842332 10.0148263662 -0.0021664360 
S -4.7307512596 8.1939054785 -7.6506323570 
S -3.1540189484 9.1044228344 -1.5679159982 
S -4.7275170129 10.0128763045 4.5045892834 
S -4.7307503859 8.1939045750 -4.5222282367 
S -3.1536763665 9.1042250086 1.5641320554 
S -4.7301637420 10.0144033649 7.6391349998 
Mo 4.7297824878 2.7205849565 6.0859807513 
Mo 4.7307503218 0.9104407117 -6.0872367793 
Mo 3.1538003950 1.8209680649 -0.0021225149 
S 3.1538350223 0.0000077495 -7.6506323570 
S 4.7311079471 0.9108700500 -1.5673785730 
S 3.1576179432 1.8197245679 4.5089599133 
S 3.1538358961 0.0000068460 -4.5222282367 
S 4.7303246008 0.9098520892 1.5648379577 
S 3.1499412828 1.8099883515 7.6482072483 
Mo 3.1581652433 5.4600793697 6.1422051031 
Mo 3.1538317519 3.6417399547 -6.0872367793 
Mo 1.5771880153 4.5524360869 -0.0015476190 
S 1.5769164523 2.7313069925 -7.6506323570 
S 3.1538550539 3.6419718008 -1.5671764922 
S 1.5973846975 4.5650955296 4.5489213908 
S 1.5769173261 2.7313060890 -4.5222282367 
S 3.1536831806 3.6416059301 1.5657758467 
S 1.5115049610 4.4995839854 7.6847145705 
Mo 1.5743291149 8.2012654684 6.0908061440 
Mo 1.5769131819 6.3730391977 -6.0872367793 
Mo 0.0001423302 7.2833675170 -0.0024737644 
S -0.0000021176 5.4626062355 -7.6506323570 
S 1.5771399439 6.3728876065 -1.5675383971 
S 0.0052922298 7.2803840569 4.5192619145 
S -0.0000012439 5.4626053320 -4.5222282367 
S 1.5765922098 6.3732041197 1.5652898263 
S -0.0056924974 7.2867323026 7.6538535801 
Mo 6.3086310839 -0.0016499692 6.0728329911 
Mo -0.0000053881 9.1043384407 -6.0872367793 
Mo -1.5768197638 10.0147155036 -0.0026242661 
S -1.5769206876 8.1939054785 -7.6506323570 
S 0.0005963616 9.1045351206 -1.5674612227 
S -1.5746627652 10.0106252698 4.5072950378 
S -1.5769198139 8.1939045750 -4.5222282367 
S -0.0006075972 9.1038147188 1.5650346940 
S -1.5758773612 10.0140075536 7.6442593272 
Mo 7.8837595939 2.7317530776 6.0735133609 
Mo 7.8845808939 0.9104407117 -6.0872367793 
Mo 6.3074966978 1.8209726567 -0.0009784902 
S 6.3076655943 0.0000077495 -7.6506323570 
S 7.8846463663 0.9104539827 -1.5661204071 
S 6.3034251410 1.8221699679 4.5096277540 
S 6.3076664681 0.0000068460 -4.5222282367 
S 7.8841516960 0.9101599362 1.5662209151 
S 6.3154885174 1.8094851638 7.6459352708 
Mo 6.3164392921 5.4687615408 6.0859794563 
Mo 6.3076623239 3.6417399547 -6.0872367793 
Mo 4.7303998108 4.5523528532 -0.0012915290 
S 4.7307470244 2.7313069925 -7.6506323570 
S 6.3075530892 3.6417833509 -1.5663469648 
S 4.7129825197 4.5624002830 4.5533625041 
S 4.7307478981 2.7313060890 -4.5222282367 
S 6.3066814219 3.6422845606 1.5665803258 
S 4.8176534901 4.5019695257 7.7008189580 
Mo 4.7438777223 8.2048456163 6.0743143410 
Mo 4.7307437539 6.3730391977 -6.0872367793 
Mo 3.1537191881 7.2830743529 -0.0015494753 
S 3.1538284544 5.4626062355 -7.6506323570 
S 4.7305371825 6.3728720375 -1.5671780063 
S 3.1528478766 7.2592443651 4.5489139018 
S 3.1538293281 5.4626053320 -4.5222282367 
S 4.7307670757 6.3732040906 1.5657767281 
S 3.1666457831 7.3663884519 7.6847010505 
Mo 9.4617400553 0.0006099989 6.0717375734 
Mo 3.1538251839 9.1043384407 -6.0872367793 
Mo 1.5768866585 10.0144994295 -0.0008725109 
S 1.5769098844 8.1939054785 -7.6506323570 
S 3.1537583380 9.1043727754 -1.5663667184 
S 1.5770455517 10.0071866981 4.5096863649 
S 1.5769107581 8.1939045750 -4.5222282367 
S 3.1537220889 9.1030203014 1.5667120673 
S 1.5756976421 10.0311837837 7.6494151073 
Mo -1.5773362637 2.7307556018 6.0717406454 
Mo 11.0384114659 0.9104407117 -6.0872367793 
Mo 9.4613119232 1.8209579644 -0.0006967064 
S 9.4614961663 0.0000077495 -7.6506323570 
S 11.0381596199 0.9105645109 -1.5661453840 
S 9.4592867137 1.8221224777 4.5061772162 
S 9.4614970401 0.0000068460 -4.5222282367 
S 11.0384605502 0.9103903032 1.5657447993 
S 9.4610675166 1.8210914851 7.6402295337 
Mo -3.1519369316 5.4625590964 6.0728364476 
Mo 9.4614928959 3.6417399547 -6.0872367793 
Mo 7.8843887160 4.5522378393 -0.0009776129 
S 7.8845775964 2.7313069925 -7.6506323570 
S 9.4614957535 3.6416459261 -1.5661187693 
S 7.8813119821 4.5551540175 4.5096284097 
S 7.8845784701 2.7313060890 -4.5222282367 
S 9.4615021333 3.6422189314 1.5662217306 
S 7.8983273457 4.5510491399 7.6459361834 
Mo -4.7259553742 8.1935236917 6.0732430006 
Mo 7.8845743259 6.3730391977 -6.0872367793 
Mo 6.3075411119 7.2834226020 -0.0021223402 
S 6.3076590264 5.4626062355 -7.6506323570 
S 7.8843628843 6.3724823585 -1.5673785044 
S 6.3105261714 7.2807255520 4.5089548932 
S 6.3076599001 5.4626053320 -4.5222282367 
S 7.8848519823 6.3736705613 1.5648381429 
S 6.3151129557 7.2922444945 7.6482035493 
Mo 0.0003629276 -0.0002243605 6.0671174716 
Mo 6.3076557559 9.1043384407 -6.0872367793 
Mo 4.7305906966 10.0145425711 -0.0009306979 
S 4.7307404564 8.1939054785 -7.6506323570 
S 6.3070906555 9.1045302013 -1.5671741817 
S 4.7303694176 10.0146956083 4.5023764602 
S 4.7307413301 8.1939045750 -4.5222282367 
S 6.3079951885 9.1039598991 1.5652423416 
S 4.7361517825 10.0284511102 7.6423939870 
Pd 3.1057231795 5.4904105799 9.1093121812 
H 2.2860288454 5.9637852868 10.3833311887 

