&CONTROL
   calculation      = 'relax'
   restart_mode     = 'restart'
   wf_collect       = .true.
   nstep            = 1000
   tstress          = .false.
   tprnfor          = .true.
   outdir           = './outdir'
   pseudo_dir       = './pseudo'
/
&SYSTEM
   ecutwfc          = 77.0
   ecutrho          = 539.0
   nosym            = .true.
   occupations      = 'smearing'
   degauss          = 0.01
   smearing         = 'gaussian'
   assume_isolated  = 'esm'
   esm_bc           = 'bc1'
   vdw_corr         = 'dft-d3'
   dftd3_version    = 4
   ntyp             = 3
   nat              = 193
   ibrav            = 0
/
&ELECTRONS
   electron_maxstep = 1000
   conv_thr         = 1e-06
   mixing_beta      = 0.2
   diagonalization  = 'david'
/
&IONS
/
&CELL
/

ATOMIC_SPECIES
Mo 95.95 Mo.pbe-spn-kjpaw_psl.1.0.0.UPF
S 32.06 S.pbe-n-kjpaw_psl.1.0.0.UPF
Au 196.966569 Au.pbe-spfn-kjpaw_psl.1.0.0.UPF

K_POINTS automatic
2 2 1  0 0 0

CELL_PARAMETERS angstrom
12.60495876880469 0.00000000000000 0.00000000000000
-6.30246677944357 10.91622202271285 0.00000000000000
0.00000000000000 0.00000000000000 36.46614571815195

ATOMIC_POSITIONS angstrom
Mo 0.0000119917 1.8193638619 -9.1672481230  0 0 0
Mo 1.5756136568 0.9097075315 -3.0554901653  0 0 0
S 0.0000188998 1.8193822938 -4.6232556019  0 0 0
S 1.5756321638 0.9096773839 -7.6014065489  0 0 0
S 1.5756326175 0.9096785128 -10.7330757790  0 0 0
S 0.0000189190 1.8193860094 -1.4877129945  0 0 0
Mo 0.0000517814 1.8193304630 3.0554709409 
Mo 1.5756571273 0.9096999807 9.1669578430 
S 0.0000473625 1.8193902382 7.5990237458 
S 1.5756670144 0.9096790202 4.6231899327 
S 1.5756615492 0.9096849696 1.4876959964 
S 0.0000478263 1.8193885884 10.7360262282 
Mo -1.5756053507 4.5484193819 -9.1672481230  0 0 0
Mo 0.0000378379 3.6387394919 -3.0554952701  0 0 0
S -1.5755913433 4.5484363582 -4.6232494962  0 0 0
S 0.0000148214 3.6387329039 -7.6014065489  0 0 0
S 0.0000152751 3.6387340328 -10.7330757790  0 0 0
S -1.5755906502 4.5484413613 -1.4877305502  0 0 0
Mo -1.5755958788 4.5484289705 3.0554554571 
Mo 0.0000481411 3.6387555979 9.1669545061 
S -1.5755712293 4.5484455814 7.5990204222 
S 0.0000467611 3.6387390983 4.6231698781 
S 0.0000436021 3.6387322161 1.4877170767 
S -1.5755725313 4.5484471207 10.7360276379 
Mo -3.1512226931 7.2774749019 -9.1672481230  0 0 0
Mo -1.5755910988 6.3678216792 -3.0555115988  0 0 0
S -3.1512162438 7.2774954350 -4.6232578178  0 0 0
S -1.5756025210 6.3677884239 -7.6014065489  0 0 0
S -1.5756020673 6.3677895528 -10.7330757790  0 0 0
S -3.1512127704 7.2774877076 -1.4877200710  0 0 0
Mo -3.1512176589 7.2774767378 3.0554673834 
Mo -1.5755714992 6.3678102747 9.1669575114 
S -3.1511867745 7.2775007117 7.5990172253 
S -1.5755730459 6.3677997557 4.6231788497 
S -1.5755792414 6.3677984106 1.4877056139 
S -3.1511875916 7.2775004765 10.7360303647 
Mo -4.7268400355 10.0065304219 -9.1672481230  0 0 0
Mo -3.1512405618 9.0968403586 -3.0554816746  0 0 0
S -4.7268341792 10.0065523623 -4.6232463762  0 0 0
S -3.1512198634 9.0968439439 -7.6014065489  0 0 0
S -3.1512194097 9.0968450728 -10.7330757790  0 0 0
S -4.7268370797 10.0065537885 -1.4877176751  0 0 0
Mo -4.7268299082 10.0065528280 3.0554444078 
Mo -3.1511956745 9.0968680136 9.1669581746 
S -4.7268011272 10.0065554263 7.5990202888 
S -3.1511918038 9.0968595990 4.6231725957 
S -3.1511903781 9.0968530391 1.4877105966 
S -4.7268025269 10.0065532436 10.7360274484 
Mo 3.1512517547 1.8193638619 -9.1672481230  0 0 0
Mo 4.7269020221 0.9097289540 -3.0554823951  0 0 0
S 3.1512612351 1.8193882564 -4.6232320683  0 0 0
S 4.7268719268 0.9096773839 -7.6014065489  0 0 0
S 4.7268723805 0.9096785128 -10.7330757790  0 0 0
S 3.1512592485 1.8193890201 -1.4877261251  0 0 0
Mo 3.1512859282 1.8193631580 3.0554522638 
Mo 4.7269210428 0.9097103912 9.1669554333 
S 3.1512907519 1.8193880211 7.5990163107 
S 4.7268928600 0.9096777456 4.6232005047 
S 4.7269017428 0.9096838694 1.4876906017 
S 3.1512901228 1.8193891150 10.7360340709 
Mo 1.5756344123 4.5484193819 -9.1672481230  0 0 0
Mo 3.1512756394 3.6387769522 -3.0554814834  0 0 0
S 1.5756504879 4.5484423799 -4.6232390542  0 0 0
S 3.1512545844 3.6387329039 -7.6014065489  0 0 0
S 3.1512550381 3.6387340328 -10.7330757790  0 0 0
S 1.5756466253 4.5484431864 -1.4877251801  0 0 0
Mo 1.5756889252 4.5484350247 3.0554461843 
Mo 3.1512964451 3.6387674358 9.1669570131 
S 1.5756704116 4.5484459095 7.5990201110 
S 3.1512804630 3.6387367987 4.6231895946 
S 3.1512811430 3.6387339748 1.4876853743 
S 1.5756734225 4.5484473230 10.7360280607 
Mo 0.0000170699 7.2774749019 -9.1672481230  0 0 0
Mo 1.5756764447 6.3678236689 -3.0554877708  0 0 0
S 0.0000381981 7.2774979204 -4.6232454413  0 0 0
S 1.5756372420 6.3677884239 -7.6014065489  0 0 0
S 1.5756376957 6.3677895528 -10.7330757790  0 0 0
S 0.0000328088 7.2774946042 -1.4877307940  0 0 0
Mo 0.0000491004 7.2775077947 3.0554457079 
Mo 1.5756828518 6.3678203102 9.1669572708 
S 0.0000519202 7.2775023885 7.5990165125 
S 1.5756632836 6.3677964896 4.6231822451 
S 1.5756618168 6.3677957265 1.4876852296 
S 0.0000525827 7.2775022910 10.7360332046 
Mo -1.5756002725 10.0065304219 -9.1672481230  0 0 0
Mo 0.0000873425 9.0968676911 -3.0554912329  0 0 0
S -1.5755883952 10.0065504530 -4.6232240150  0 0 0
S 0.0000198996 9.0968439439 -7.6014065489  0 0 0
S 0.0000203533 9.0968450728 -10.7330757790  0 0 0
S -1.5755859047 10.0065492576 -1.4877362381  0 0 0
Mo -1.5755397558 10.0065486558 3.0554492107 
Mo 0.0000710954 9.0968779063 9.1669569442 
S -1.5755637347 10.0065552656 7.5990136907 
S 0.0000492818 9.0968518238 4.6231946333 
S 0.0000492129 9.0968539757 1.4876792013 
S -1.5755631602 10.0065547138 10.7360379198 
Mo 6.3024915177 1.8193638619 -9.1672481230  0 0 0
Mo 7.8781001445 0.9096521684 -3.0554919963  0 0 0
S 6.3025008696 1.8193826232 -4.6232480596  0 0 0
S 7.8781116898 0.9096773839 -7.6014065489  0 0 0
S 7.8781121435 0.9096785128 -10.7330757790  0 0 0
S 6.3025042007 1.8193849068 -1.4877147524  0 0 0
Mo 6.3024862793 1.8193295760 3.0554810008 
Mo 7.8781350728 0.9096952552 9.1669565045 
S 6.3025273347 1.8193900633 7.5990240414 
S 7.8781395005 0.9096774910 4.6231842589 
S 7.8781357657 0.9096867126 1.4877117601 
S 6.3025268526 1.8193909804 10.7360262155 
Mo 4.7268741753 4.5484193819 -9.1672481230  0 0 0
Mo 6.3024679138 3.6387501714 -3.0554895197  0 0 0
S 4.7268748770 4.5484386753 -4.6232519432  0 0 0
S 6.3024943474 3.6387329039 -7.6014065489  0 0 0
S 6.3024948011 3.6387340328 -10.7330757790  0 0 0
S 4.7268770533 4.5484432419 -1.4877137856  0 0 0
Mo 4.7268634967 4.5483921539 3.0554455066 
Mo 6.3025245206 3.6387556765 9.1669570363 
S 4.7269115534 4.5484445334 7.5990188801 
S 6.3025197172 3.6387403818 4.6231707419 
S 6.3025234518 3.6387304344 1.4877211609 
S 4.7269114297 4.5484452178 10.7360255410 
Mo 3.1512568329 7.2774749019 -9.1672481230  0 0 0
Mo 4.7268384135 6.3678043337 -3.0554959052  0 0 0
S 3.1512606125 7.2774972547 -4.6232589675  0 0 0
S 4.7268770050 6.3677884239 -7.6014065489  0 0 0
S 4.7268774587 6.3677895528 -10.7330757790  0 0 0
S 3.1512629079 7.2774963749 -1.4877081835  0 0 0
Mo 3.1512507673 7.2774693361 3.0554407833 
Mo 4.7269058096 6.3678134543 9.1669568823 
S 3.1512929467 7.2775006667 7.5990202475 
S 4.7269041601 6.3677940637 4.6231618360 
S 4.7269092571 6.3677941373 1.4877108351 
S 3.1512938326 7.2775000071 10.7360259985 
Mo 1.5756394905 10.0065304219 -9.1672481230  0 0 0
Mo 3.1512330605 9.0968514907 -3.0554878870  0 0 0
S 1.5756499830 10.0065443759 -4.6232632674  0 0 0
S 3.1512596626 9.0968439439 -7.6014065489  0 0 0
S 3.1512601163 9.0968450728 -10.7330757790  0 0 0
S 1.5756503041 10.0065459699 -1.4877044377  0 0 0
Mo 1.5756286154 10.0065294312 3.0554456399 
Mo 3.1512857427 9.0968653205 9.1669576047 
S 1.5756741252 10.0065580027 7.5990244441 
S 3.1512835992 9.0968499411 4.6231678749 
S 3.1512881890 9.0968552869 1.4877084853 
S 1.5756737326 10.0065557900 10.7360258086 
Mo 9.4537312807 1.8193638619 -9.1672481230  0 0 0
Mo 11.0293863460 0.9096952246 -3.0554894007  0 0 0
S 9.4537395970 1.8193770750 -4.6232328036  0 0 0
S 11.0293514528 0.9096773839 -7.6014065489  0 0 0
S 11.0293519066 0.9096785128 -10.7330757790  0 0 0
S 9.4537393632 1.8193794783 -1.4877366147  0 0 0
Mo 9.4537839204 1.8193625182 3.0554639557 
Mo 11.0294006502 0.9097058759 9.1669568023 
S 9.4537679802 1.8193908477 7.5990154990 
S 11.0293865661 0.9096815009 4.6232015090 
S 11.0293875108 0.9096847747 1.4876968139 
S 9.4537703003 1.8193920845 10.7360351026 
Mo 7.8781139383 4.5484193819 -9.1672481230  0 0 0
Mo 9.4537539161 3.6387607911 -3.0554933032  0 0 0
S 7.8781175448 4.5484378232 -4.6232366318  0 0 0
S 9.4537341104 3.6387329039 -7.6014065489  0 0 0
S 9.4537345641 3.6387340328 -10.7330757790  0 0 0
S 7.8781194018 4.5484411585 -1.4877377057  0 0 0
Mo 7.8781629948 4.5484597612 3.0554546738 
Mo 9.4537759350 3.6387686950 9.1669573578 
S 7.8781526187 4.5484455553 7.5990174538 
S 9.4537628002 3.6387408989 4.6231889621 
S 9.4537632172 3.6387377381 1.4877014637 
S 7.8781527463 4.5484472855 10.7360305346 
Mo 6.3024965959 7.2774749019 -9.1672481230  0 0 0
Mo 7.8781361655 6.3678242352 -3.0555014130  0 0 0
S 6.3024973331 7.2774953556 -4.6232392528  0 0 0
S 7.8781167680 6.3677884239 -7.6014065489  0 0 0
S 7.8781172217 6.3677895528 -10.7330757790  0 0 0
S 6.3024989866 7.2774929744 -1.4877349119  0 0 0
Mo 6.3025699140 7.2775054979 3.0554558425 
Mo 7.8781584769 6.3678204568 9.1669580728 
S 6.3025354024 7.2775011973 7.5990165151 
S 7.8781467492 6.3677994847 4.6232012808 
S 7.8781502436 6.3678000106 1.4876886335 
S 6.3025363050 7.2775020467 10.7360312255 
Mo 4.7268792535 10.0065304219 -9.1672481230  0 0 0
Mo 6.3025111524 9.0968738021 -3.0554915260  0 0 0
S 4.7268840634 10.0065452125 -4.6232380477  0 0 0
S 6.3024994256 9.0968439439 -7.6014065489  0 0 0
S 6.3024998793 9.0968450728 -10.7330757790  0 0 0
S 4.7268847312 10.0065459141 -1.4877283294  0 0 0
Mo 4.7269315756 10.0065553552 3.0554614657 
Mo 6.3025449714 9.0968750197 9.1669598238 
S 4.7269159997 10.0065576012 7.5990155636 
S 6.3025321918 9.0968565884 4.6231930766 
S 6.3025281099 9.0968562267 1.4876901271 
S 4.7269184077 10.0065566471 10.7360321739 
Au 1.5760000000 6.3680000000 12.9360000000 

