SystemName	siesta
SystemLabel	siesta

%block ExternalElectricField
0.0 0.0 -0.0514220632 V/Ang
%endblock ExternalElectricField
MaxSCFIterations	2000
PartialChargesAtEveryGeometry	True
SCF.DM.Tolerance	1e-08
%block SCF.Mixer.broyden
method	broyden
weight	0.01
weight.linear	0.005
%endblock SCF.Mixer.broyden
%block SCF.Mixers
broyden
%endblock SCF.Mixers
SCFMustConverge	False
SolutionMethod	diagon
WriteCoorCerius	True
WriteCoorStep	True
WriteCoorXmol	True
WriteForces	True
WriteHirshfeldPop	True
WriteMDHistory	True
WriteMDXmol	True
WriteMullikenPop	1
WriteVoronoiPop	True
siesta2Wannier90.WriteAmn	True
siesta2Wannier90.WriteEig	True
siesta2Wannier90.WriteMmn	True
siesta2Wannier90.WriteUnk	False

Spin     	non-polarized
XC.functional	GGA
XC.authors	PBE

MeshCutoff	1102.0611339868733	eV
PAO.EnergyShift	0.1	eV

NumberOfSpecies	2
NumberOfAtoms	30
%block ChemicalSpecieslabel
    1 1 H.gga.1
    2 8 O.gga.2
%endblock ChemicalSpecieslabel

%block PAO.BasisSizes
    H.gga.1	DZ
    O.gga.2	DZ
%endblock PAO.BasisSizes


LatticeConstant	1.0 Ang
%block LatticeVectors
    30.000000000000000     0.000000000000000     0.000000000000000 
    0.000000000000000     30.000000000000000     0.000000000000000 
    0.000000000000000     0.000000000000000     30.000000000000000 
%endblock LatticeVectors


AtomicCoordinatesFormat  Ang
%block AtomicCoordinatesAndAtomicSpecies
    12.882103101     17.981638863     14.946747201 1
    11.927303101     17.260638863     16.057947201 1
    12.627403101     17.960638863     15.913947201 2
    14.082703101     14.920438863     16.160947201 1
    13.905103101     16.504638863     16.511947201 1
    14.567503101     15.778638863     16.329947201 2
    14.535603101     13.590538863     13.014647201 1
    13.175303101     14.270138863     12.419247201 1
    13.557503101     13.455838863     12.856047201 2
    15.411503101     15.571638863     17.952947201 1
    14.858503101     14.342238863     18.873947201 1
    15.500503101     15.107638863     18.833947201 2
    11.926303101     13.822238863     15.787947201 1
    12.947503101     13.535838863     14.546047201 1
    12.823803101     13.460538863     15.535947201 2
    13.442403101     17.083638863     12.808947201 1
    12.673403101     16.334638863     11.578747201 1
    13.301503101     16.208638863     12.346547201 2
    18.590503101     15.605638863     12.307647201 1
    17.621503101     16.109638863     13.521347201 1
    17.644503101     15.785638863     12.575547201 2
    17.428503101     17.313638863     15.541947201 1
    16.309503101     16.123638863     15.527947201 1
    17.113503101     16.494638863     15.062447201 2
    15.613503101     12.341038863     16.995947201 1
    16.744503101     12.077038863     18.144947201 1
    16.589503101     12.390338863     17.207947201 2
    16.657503101     14.177438863     13.099947201 1
    16.977503101     12.584538863     12.935647201 1
    16.418503101     13.259738863     13.417347201 2
%endblock AtomicCoordinatesAndAtomicSpecies

%block DM.InitSpin
%endblock DM.InitSpin

DM.UseSaveDM	True

#KPoint grid
%block kgrid_Monkhorst_Pack
     1       0       0  0.0
     0       1       0  0.0
     0       0       1  0.0
%endblock kgrid_Monkhorst_Pack

