&CONTROL
   calculation      = 'scf'
   restart_mode     = 'from_scratch'
   wf_collect       = .true.
   tstress          = .false.
   tprnfor          = .true.
   outdir           = './outdir'
   pseudo_dir       = './pseudo'
/
&SYSTEM
   ecutwfc          = 77.0
   ecutrho          = 539.0
   occupations      = 'smearing'
   degauss          = 0.01
   smearing         = 'gaussian'
   assume_isolated  = 'esm'
   esm_bc           = 'bc1'
   vdw_corr         = 'dft-d3'
   dftd3_version    = 4
   ntyp             = 3
   nat              = 145
   ibrav            = 0
/
&ELECTRONS
   electron_maxstep = 1000
   conv_thr         = 1e-06
   mixing_beta      = 0.2
   diagonalization  = 'david'
/
&IONS
/
&CELL
/

ATOMIC_SPECIES
Mo 95.95 Mo.pbe-spn-kjpaw_psl.1.0.0.UPF
S 32.06 S.pbe-n-kjpaw_psl.1.0.0.UPF
H 1.008 H.pbe-kjpaw_psl.1.0.0.UPF

K_POINTS automatic
2 2 1  0 0 0

CELL_PARAMETERS angstrom
12.61532217525308 0.00000000000000 0.00000000000000
-6.30767370294872 10.92519700214573 0.00000000000000
0.00000000000000 0.00000000000000 30.30125956094956

ATOMIC_POSITIONS angstrom
Mo 1.5818401232 2.7345746111 6.0892456563 
Mo 1.5769197498 0.9104407117 -6.0872367793 
Mo -0.0001017550 1.8206697857 -0.0013593406 
S 0.0000044503 0.0000077495 -7.6506323570 
S 1.5770947739 0.9103652886 -1.5664783538 
S 0.0054944317 1.8215241480 4.5242421298 
S 0.0000053241 0.0000068460 -4.5222282367 
S 1.5769145741 0.9106119660 1.5661785482 
S 0.0013655478 1.8247397212 7.6555967898 
Mo 0.0053190819 5.4652045872 6.0892687583 
Mo 0.0000011799 3.6417399547 -6.0872367793 
Mo -1.5771538943 4.5521959345 -0.0013550374 
S -1.5769141197 2.7313069925 -7.6506323570 
S 0.0001533055 3.6418389716 -1.5665836602 
S -1.5735824614 4.5565903011 4.5242491890 
S -1.5769132459 2.7313060890 -4.5222282367 
S -0.0008003470 3.6412849011 1.5651835391 
S -1.5728764518 4.5513964941 7.6556024566 
Mo -1.5799230972 8.1955906612 6.0833249134 
Mo -1.5769173901 6.3730391977 -6.0872367793 
Mo -3.1538571920 7.2835201740 -0.0009261396 
S -3.1538326896 5.4626062355 -7.6506323570 
S -1.5769051891 6.3732396319 -1.5664777522 
S -3.1538611178 7.2818755202 4.5168790267 
S -3.1538318159 5.4626053320 -4.5222282367 
S -1.5767796906 6.3729598073 1.5661836361 
S -3.1538584552 7.2847479342 7.6541530837 
Mo 3.1538082061 -0.0034483127 6.0833228678 
Mo -3.1538359601 9.1043384407 -6.0872367793 
Mo -4.7307304212 10.0147406426 -0.0009283484 
S -4.7307512596 8.1939054785 -7.6506323570 
S -3.1538601188 9.1043304075 -1.5663847572 
S -4.7321396742 10.0155272213 4.5168833616 
S -4.7307503859 8.1939045750 -4.5222282367 
S -3.1538614217 9.1043314457 1.5662355581 
S -4.7296449556 10.0140949240 7.6541491077 
Mo 4.7257577360 2.7345881892 6.0892748645 
Mo 4.7307503218 0.9104407117 -6.0872367793 
Mo 3.1538110832 1.8211102852 -0.0010359657 
S 3.1538350223 0.0000077495 -7.6506323570 
S 4.7305262317 0.9103643043 -1.5664820710 
S 3.1538164821 1.8233673237 4.5255247410 
S 3.1538358961 0.0000068460 -4.5222282367 
S 4.7307068746 0.9106134015 1.5661803469 
S 3.1537975037 1.8102713103 7.6588012086 
Mo 3.1537639063 5.4624878976 6.0085503612 
Mo 3.1538317519 3.6417399547 -6.0872367793 
Mo 1.5769889616 4.5522247810 -0.0007306236 
S 1.5769164523 2.7313069925 -7.6506323570 
S 3.1538083330 3.6419260921 -1.5663982578 
S 1.5578264598 4.5411368379 4.4979715707 
S 1.5769173261 2.7313060890 -4.5222282367 
S 3.1538108095 3.6419309933 1.5667089350 
S 1.6244069580 4.5795489003 7.6613329279 
Mo 1.5772939299 8.1878818533 6.0893440680 
Mo 1.5769131819 6.3730391977 -6.0872367793 
Mo 0.0001808715 7.2833456619 -0.0010362137 
S -0.0000021176 5.4626062355 -7.6506323570 
S 1.5770517062 6.3729381748 -1.5663972005 
S 0.0021808294 7.2821920074 4.5255570053 
S -0.0000012439 5.4626053320 -4.5222282367 
S 1.5770602611 6.3729371163 1.5667079500 
S -0.0092217339 7.2887194593 7.6588183498 
Mo 6.3065305552 -0.0006692827 6.0879118645 
Mo -0.0000053881 9.1043384407 -6.0872367793 
Mo -1.5769924813 10.0147392533 -0.0009260644 
S -1.5769206876 8.1939054785 -7.6506323570 
S -0.0001931627 9.1041936124 -1.5664806076 
S -1.5755861527 10.0155287382 4.5168862021 
S -1.5769198139 8.1939045750 -4.5222282367 
S 0.0001138979 9.1042274002 1.5661805353 
S -1.5780822738 10.0140924159 7.6541451347 
Mo 7.8824713895 2.7324777523 6.0865240031 
Mo 7.8845808939 0.9104407117 -6.0872367793 
Mo 6.3077192425 1.8206681245 -0.0013622297 
S 6.3076655943 0.0000077495 -7.6506323570 
S 7.8845596771 0.9104368248 -1.5667476988 
S 6.3020998615 1.8215346105 4.5242526328 
S 6.3076664681 0.0000068460 -4.5222282367 
S 7.8845562753 0.9104344971 1.5662772107 
S 6.3062518663 1.8247435256 7.6556048599 
Mo 6.3022550637 5.4652023536 6.0893142850 
Mo 6.3076623239 3.6417399547 -6.0872367793 
Mo 4.7306244832 4.5522242427 -0.0007338780 
S 4.7307470244 2.7313069925 -7.6506323570 
S 6.3074601264 3.6418374783 -1.5665889124 
S 4.7497616162 4.5411465705 4.4980134334 
S 4.7307478981 2.7313060890 -4.5222282367 
S 6.3084129747 3.6412845804 1.5651835470 
S 4.6830306018 4.5796274908 7.6614951826 
Mo 4.7302913576 8.1878752703 6.0893609877 
Mo 4.7307437539 6.3730391977 -6.0872367793 
Mo 3.1538025185 7.2833545829 -0.0007354535 
S 3.1538284544 5.4626062355 -7.6506323570 
S 4.7305552990 6.3729370020 -1.5664028099 
S 3.1537989273 7.3054009113 4.4980719263 
S 3.1538293281 5.4626053320 -4.5222282367 
S 4.7305498369 6.3729357878 1.5667070934 
S 3.1537831665 7.2281350461 7.6617257538 
Mo 9.4614686313 -0.0024370022 6.0865312421 
Mo 3.1538251839 9.1043384407 -6.0872367793 
Mo 1.5767497821 10.0149340756 -0.0013628392 
S 1.5769098844 8.1939054785 -7.6506323570 
S 3.1537997204 9.1041266578 -1.5665900738 
S 1.5747105668 10.0095561279 4.5242770635 
S 1.5769107581 8.1939045750 -4.5222282367 
S 3.1538001306 9.1052263379 1.5651833849 
S 1.5795733792 10.0115954393 7.6556245694 
Mo -1.5748692787 2.7324738406 6.0865204894 
Mo 11.0384114659 0.9104407117 -6.0872367793 
Mo 9.4614690472 1.8208668393 -0.0011069068 
S 9.4614961663 0.0000077495 -7.6506323570 
S 11.0383812550 0.9104379791 -1.5667465948 
S 9.4614641297 1.8208355626 4.5206630832 
S 9.4614970401 0.0000068460 -4.5222282367 
S 11.0383808174 0.9104337310 1.5662780526 
S 9.4614649585 1.8208419994 7.6531287802 
Mo -3.1538622605 5.4638630048 6.0879064270 
Mo 9.4614928959 3.6417399547 -6.0872367793 
Mo 7.8847652750 4.5521955113 -0.0013607222 
S 7.8845775964 2.7313069925 -7.6506323570 
S 9.4614679658 3.6417289595 -1.5667465029 
S 7.8811636823 4.5566065109 4.5242648796 
S 7.8845784701 2.7313060890 -4.5222282367 
S 9.4614642358 3.6417287978 1.5662831426 
S 7.8804837456 4.5513888734 7.6556137519 
Mo -4.7277941510 8.1955950053 6.0833246790 
Mo 7.8845743259 6.3730391977 -6.0872367793 
Mo 6.3074246661 7.2833452592 -0.0010390201 
S 6.3076590264 5.4626062355 -7.6506323570 
S 7.8845126252 6.3732394688 -1.5664807314 
S 6.3054137867 7.2821780148 4.5255792530 
S 6.3076599001 5.4626053320 -4.5222282367 
S 7.8843827863 6.3729589827 1.5661809891 
S 6.3168336775 7.2887370748 7.6588298031 
Mo 0.0010859678 -0.0006734726 6.0879104637 
Mo 6.3076557559 9.1043384407 -6.0872367793 
Mo 4.7308459633 10.0149354212 -0.0013616677 
S 4.7307404564 8.1939054785 -7.6506323570 
S 6.3077926203 9.1041943422 -1.5664843240 
S 4.7328839199 10.0095472349 4.5242820238 
S 4.7307413301 8.1939045750 -4.5222282367 
S 6.3074850181 9.1042243371 1.5661803498 
S 4.7280189738 10.0115979110 7.6556282965 
H 3.1544541029 5.4639971148 8.6595395824 

