&CONTROL
   calculation      = 'relax'
   restart_mode     = 'restart'
   wf_collect       = .true.
   nstep            = 1000
   tstress          = .true.
   tprnfor          = .true.
   outdir           = './outdir'
   pseudo_dir       = './pseudo'
/
&SYSTEM
   ecutwfc          = 77.0
   ecutrho          = 539.0
   nosym            = .false.
   occupations      = 'smearing'
   degauss          = 0.01
   smearing         = 'gaussian'
   assume_isolated  = 'esm'
   esm_bc           = 'bc1'
   vdw_corr         = 'dft-d3'
   dftd3_version    = 4
   ntyp             = 2
   nat              = 144
   ibrav            = 0
/
&ELECTRONS
   electron_maxstep = 1000
   conv_thr         = 1e-06
   mixing_beta      = 0.2
   diagonalization  = 'david'
/
&IONS
/
&CELL
/

ATOMIC_SPECIES
Mo 95.95 Mo.pbe-spn-kjpaw_psl.1.0.0.UPF
C 12.011 C.pbe-n-kjpaw_psl.1.0.0.UPF

K_POINTS automatic
2 2 1  0 0 0

CELL_PARAMETERS angstrom
15.57256841700128 0.00000000000000 0.00000000000000
-0.00000949207236 15.29519024596196 0.00000000000000
0.00000000000000 0.00000000000000 21.51436070435722

ATOMIC_POSITIONS angstrom
Mo 4.7791861810 2.0485568706 2.2821140517 
Mo 0.4116432249 7.0530580320 3.2571756197 
Mo 2.1837704504 3.2292770957 3.2571803522 
Mo 3.0070731966 5.8723967782 2.2821282600 
Mo 0.4116468343 4.7088233978 1.3699376609 
Mo 4.7791949102 7.3039286021 0.4561225132 
Mo 3.0070719022 3.4801149086 0.4560880931 
Mo 2.1837756133 0.8850099959 1.3699242977 
C 3.8931426552 3.9704110745 2.3146226317 
C 1.2976941359 5.1312513975 3.2246966173 
C 1.2976996874 1.3074327335 3.2246696625 
C 3.8931424222 0.1466010767 2.3146194733 
Mo 4.7791860412 4.9596506914 -1.4311543936  0 0 0
Mo 0.4116383390 2.3165567298 -0.4560928255  0 0 0
Mo 2.1837703106 6.1403709164 -0.4560880931  0 0 0
Mo 3.0070683108 1.1358954760 -1.4311401853  0 0 0
Mo 0.4116466944 7.6199172186 -2.3433307844  0 0 0
Mo 4.7791900244 2.5674272998 -3.2571459321  0 0 0
Mo 3.0070717624 6.3912087293 -3.2571803522  0 0 0
Mo 2.1837754735 3.7961038167 -2.3433441476  0 0 0
C 3.8931425154 6.8815048952 -1.3986458136  0 0 0
C 1.2976892501 0.3947500953 -0.4885718280  0 0 0
C 1.2976995476 4.2185265543 -0.4885987828  0 0 0
C 3.8931422824 3.0576948975 -1.3986489720  0 0 0
Mo 4.7791814349 9.6961519936 2.2821140517 
Mo 0.4116384788 14.7006531549 3.2571756197 
Mo 2.1837657043 10.8768722186 3.2571803522 
Mo 3.0070684506 13.5199919012 2.2821282600 
Mo 0.4116420882 12.3564185208 1.3699376609 
Mo 4.7791901642 14.9515237250 0.4561225132 
Mo 3.0070671561 11.1277100315 0.4560880931 
Mo 2.1837708673 8.5326051189 1.3699242977 
C 3.8931379091 11.6180061975 2.3146226317 
C 1.2976893899 12.7788465205 3.2246966173 
C 1.2976949413 8.9550278565 3.2246696625 
C 3.8931376762 7.7941961997 2.3146194733 
Mo 4.7791812951 12.6072458144 -1.4311543936  0 0 0
Mo 0.4116335930 9.9641518527 -0.4560928255  0 0 0
Mo 2.1837655645 13.7879660394 -0.4560880931  0 0 0
Mo 3.0070635647 8.7834905990 -1.4311401853  0 0 0
Mo 0.4116419484 15.2675123416 -2.3433307844  0 0 0
Mo 4.7791852783 10.2150224228 -3.2571459321  0 0 0
Mo 3.0070670163 14.0388038523 -3.2571803522  0 0 0
Mo 2.1837707275 11.4436989397 -2.3433441476  0 0 0
C 3.8931377693 14.5291000182 -1.3986458136  0 0 0
C 1.2976845040 8.0423452183 -0.4885718280  0 0 0
C 1.2976948015 11.8661216773 -0.4885987828  0 0 0
C 3.8931375364 10.7052900205 -1.3986489720  0 0 0
Mo 9.9700423200 2.0485568706 2.2821140517 
Mo 5.6024993639 7.0530580320 3.2571756197 
Mo 7.3746265894 3.2292770957 3.2571803522 
Mo 8.1979293356 5.8723967782 2.2821282600 
Mo 5.6025029733 4.7088233978 1.3699376609 
Mo 9.9700510492 7.3039286021 0.4561225132 
Mo 8.1979280412 3.4801149086 0.4560880931 
Mo 7.3746317523 0.8850099959 1.3699242977 
C 9.0839987942 3.9704110745 2.3146226317 
C 6.4885502749 5.1312513975 3.2246966173 
C 6.4885558264 1.3074327335 3.2246696625 
C 9.0839985612 0.1466010767 2.3146194733 
Mo 9.9700421802 4.9596506914 -1.4311543936  0 0 0
Mo 5.6024944780 2.3165567298 -0.4560928255  0 0 0
Mo 7.3746264496 6.1403709164 -0.4560880931  0 0 0
Mo 8.1979244498 1.1358954760 -1.4311401853  0 0 0
Mo 5.6025028334 7.6199172186 -2.3433307844  0 0 0
Mo 9.9700461634 2.5674272998 -3.2571459321  0 0 0
Mo 8.1979279014 6.3912087293 -3.2571803522  0 0 0
Mo 7.3746316125 3.7961038167 -2.3433441476  0 0 0
C 9.0839986544 6.8815048952 -1.3986458136  0 0 0
C 6.4885453891 0.3947500953 -0.4885718280  0 0 0
C 6.4885556866 4.2185265543 -0.4885987828  0 0 0
C 9.0839984214 3.0576948975 -1.3986489720  0 0 0
Mo 9.9700375739 9.6961519936 2.2821140517 
Mo 5.6024946178 14.7006531549 3.2571756197 
Mo 7.3746218433 10.8768722186 3.2571803522 
Mo 8.1979245896 13.5199919012 2.2821282600 
Mo 5.6024982272 12.3564185208 1.3699376609 
Mo 9.9700463032 14.9515237250 0.4561225132 
Mo 8.1979232951 11.1277100315 0.4560880931 
Mo 7.3746270063 8.5326051189 1.3699242977 
C 9.0839940481 11.6180061975 2.3146226317 
C 6.4885455289 12.7788465205 3.2246966173 
C 6.4885510803 8.9550278565 3.2246696625 
C 9.0839938152 7.7941961997 2.3146194733 
Mo 9.9700374341 12.6072458144 -1.4311543936  0 0 0
Mo 5.6024897320 9.9641518527 -0.4560928255  0 0 0
Mo 7.3746217035 13.7879660394 -0.4560880931  0 0 0
Mo 8.1979197037 8.7834905990 -1.4311401853  0 0 0
Mo 5.6024980874 15.2675123416 -2.3433307844  0 0 0
Mo 9.9700414173 10.2150224228 -3.2571459321  0 0 0
Mo 8.1979231553 14.0388038523 -3.2571803522  0 0 0
Mo 7.3746268665 11.4436989397 -2.3433441476  0 0 0
C 9.0839939083 14.5291000182 -1.3986458136  0 0 0
C 6.4885406430 8.0423452183 -0.4885718280  0 0 0
C 6.4885509405 11.8661216773 -0.4885987828  0 0 0
C 9.0839936754 10.7052900205 -1.3986489720  0 0 0
Mo 15.1608984590 2.0485568706 2.2821140517 
Mo 10.7933555029 7.0530580320 3.2571756197 
Mo 12.5654827284 3.2292770957 3.2571803522 
Mo 13.3887854746 5.8723967782 2.2821282600 
Mo 10.7933591123 4.7088233978 1.3699376609 
Mo 15.1609071882 7.3039286021 0.4561225132 
Mo 13.3887841802 3.4801149086 0.4560880931 
Mo 12.5654878913 0.8850099959 1.3699242977 
C 14.2748549332 3.9704110745 2.3146226317 
C 11.6794064139 5.1312513975 3.2246966173 
C 11.6794119654 1.3074327335 3.2246696625 
C 14.2748547002 0.1466010767 2.3146194733 
Mo 15.1608983192 4.9596506914 -1.4311543936  0 0 0
Mo 10.7933506170 2.3165567298 -0.4560928255  0 0 0
Mo 12.5654825886 6.1403709164 -0.4560880931  0 0 0
Mo 13.3887805888 1.1358954760 -1.4311401853  0 0 0
Mo 10.7933589724 7.6199172186 -2.3433307844  0 0 0
Mo 15.1609023024 2.5674272998 -3.2571459321  0 0 0
Mo 13.3887840404 6.3912087293 -3.2571803522  0 0 0
Mo 12.5654877515 3.7961038167 -2.3433441476  0 0 0
C 14.2748547934 6.8815048952 -1.3986458136  0 0 0
C 11.6794015281 0.3947500953 -0.4885718280  0 0 0
C 11.6794118256 4.2185265543 -0.4885987828  0 0 0
C 14.2748545604 3.0576948975 -1.3986489720  0 0 0
Mo 15.1608937129 9.6961519936 2.2821140517 
Mo 10.7933507568 14.7006531549 3.2571756197 
Mo 12.5654779823 10.8768722186 3.2571803522 
Mo 13.3887807286 13.5199919012 2.2821282600 
Mo 10.7933543662 12.3564185208 1.3699376609 
Mo 15.1609024422 14.9515237250 0.4561225132 
Mo 13.3887794341 11.1277100315 0.4560880931 
Mo 12.5654831453 8.5326051189 1.3699242977 
C 14.2748501871 11.6180061975 2.3146226317 
C 11.6794016679 12.7788465205 3.2246966173 
C 11.6794072193 8.9550278565 3.2246696625 
C 14.2748499542 7.7941961997 2.3146194733 
Mo 15.1608935731 12.6072458144 -1.4311543936  0 0 0
Mo 10.7933458710 9.9641518527 -0.4560928255  0 0 0
Mo 12.5654778425 13.7879660394 -0.4560880931  0 0 0
Mo 13.3887758427 8.7834905990 -1.4311401853  0 0 0
Mo 10.7933542264 15.2675123416 -2.3433307844  0 0 0
Mo 15.1608975563 10.2150224228 -3.2571459321  0 0 0
Mo 13.3887792943 14.0388038523 -3.2571803522  0 0 0
Mo 12.5654830055 11.4436989397 -2.3433441476  0 0 0
C 14.2748500473 14.5291000182 -1.3986458136  0 0 0
C 11.6793967820 8.0423452183 -0.4885718280  0 0 0
C 11.6794070795 11.8661216773 -0.4885987828  0 0 0
C 14.2748498144 10.7052900205 -1.3986489720  0 0 0

