&CONTROL
   calculation      = 'nscf'
   verbosity        = 'high'
   restart_mode     = 'from_scratch'
   wf_collect       = .true.
   outdir           = './outdir'
   pseudo_dir       = './pseudo'
/
&SYSTEM
   nbnd             = 1683
   ecutwfc          = 77.0
   ecutrho          = 539.0
   occupations      = 'tetrahedra'
   assume_isolated  = 'esm'
   esm_bc           = 'bc1'
   vdw_corr         = 'dft-d3'
   dftd3_version    = 4
   ntyp             = 4
   nat              = 194
   ibrav            = 0
/
&ELECTRONS
   electron_maxstep = 1000
   conv_thr         = 1e-06
   mixing_beta      = 0.2
   diagonalization  = 'david'
/
&IONS
/
&CELL
/

ATOMIC_SPECIES
Mo 95.95 Mo.pbe-spn-kjpaw_psl.1.0.0.UPF
S 32.06 S.pbe-n-kjpaw_psl.1.0.0.UPF
Pd 106.42 Pd.pbe-spn-kjpaw_psl.1.0.0.UPF
H 1.008 H.pbe-kjpaw_psl.1.0.0.UPF

K_POINTS automatic
2 2 1  0 0 0

CELL_PARAMETERS angstrom
12.60495876880469 0.00000000000000 0.00000000000000
-6.30246677944357 10.91622202271285 0.00000000000000
0.00000000000000 0.00000000000000 36.46614571815195

ATOMIC_POSITIONS angstrom
Mo 0.0000119917 1.8193638619 -9.1672481230 
Mo 1.5756136568 0.9097075315 -3.0554901653 
S 0.0000188998 1.8193822938 -4.6232556019 
S 1.5756321638 0.9096773839 -7.6014065489 
S 1.5756326175 0.9096785128 -10.7330757790 
S 0.0000189190 1.8193860094 -1.4877129945 
Mo 0.0014261355 1.8205973032 3.0545307917 
Mo 1.5900890063 0.8985228031 9.1571240488 
S 0.0191209407 1.8431776597 7.6040955320 
S 1.5766656136 0.9102807646 4.6221422257 
S 1.5767200266 0.9106924221 1.4866197403 
S -0.0026708940 1.7627950799 10.7396990155 
Mo -1.5756053507 4.5484193819 -9.1672481230 
Mo 0.0000378379 3.6387394919 -3.0554952701 
S -1.5755913433 4.5484363582 -4.6232494962 
S 0.0000148214 3.6387329039 -7.6014065489 
S 0.0000152751 3.6387340328 -10.7330757790 
S -1.5755906502 4.5484413613 -1.4877305502 
Mo -1.5740049635 4.5489197795 3.0537838824 
Mo 0.0188039853 3.6205251322 9.2293793373 
S -1.5385781853 4.5420029924 7.6207460121 
S 0.0018557776 3.6401011776 4.6224265895 
S 0.0013442440 3.6391907571 1.4859668097 
S -1.5807259372 4.5631862668 10.7541286534 
Mo -3.1512226931 7.2774749019 -9.1672481230 
Mo -1.5755910988 6.3678216792 -3.0555115988 
S -3.1512162438 7.2774954350 -4.6232578178 
S -1.5756025210 6.3677884239 -7.6014065489 
S -1.5756020673 6.3677895528 -10.7330757790 
S -3.1512127704 7.2774877076 -1.4877200710 
Mo -3.1499906464 7.2776735784 3.0542374573 
Mo -1.5659960135 6.3729195850 9.1680819835 
S -3.1308721991 7.2709959379 7.5813659776 
S -1.5743898975 6.3673113853 4.6223265523 
S -1.5741798187 6.3684376272 1.4866498382 
S -3.1474025814 7.2913993995 10.7217403571 
Mo -4.7268400355 10.0065304219 -9.1672481230 
Mo -3.1512405618 9.0968403586 -3.0554816746 
S -4.7268341792 10.0065523623 -4.6232463762 
S -3.1512198634 9.0968439439 -7.6014065489 
S -3.1512194097 9.0968450728 -10.7330757790 
S -4.7268370797 10.0065537885 -1.4877176751 
Mo -4.7258291052 10.0071688525 3.0536756128 
Mo -3.1351346869 9.0997454113 9.1397842342 
S -4.7129035373 10.0104470879 7.5736188634 
S -3.1503609008 9.0970831760 4.6212634643 
S -3.1499541509 9.0973273376 1.4865648839 
S -4.7114579059 9.9919921486 10.7155497878 
Mo 3.1512517547 1.8193638619 -9.1672481230 
Mo 4.7269020221 0.9097289540 -3.0554823951 
S 3.1512612351 1.8193882564 -4.6232320683 
S 4.7268719268 0.9096773839 -7.6014065489 
S 4.7268723805 0.9096785128 -10.7330757790 
S 3.1512592485 1.8193890201 -1.4877261251 
Mo 3.1520244060 1.8205711796 3.0547826703 
Mo 4.7473388277 0.9064665136 9.1411356266 
S 3.1581297009 1.8427155719 7.6001926432 
S 4.7277919293 0.9109047575 4.6222684708 
S 4.7278124896 0.9104274966 1.4872867139 
S 3.1858063512 1.7648637571 10.7343602848 
Mo 1.5756344123 4.5484193819 -9.1672481230 
Mo 3.1512756394 3.6387769522 -3.0554814834 
S 1.5756504879 4.5484423799 -4.6232390542 
S 3.1512545844 3.6387329039 -7.6014065489 
S 3.1512550381 3.6387340328 -10.7330757790 
S 1.5756466253 4.5484431864 -1.4877251801 
Mo 1.5766563726 4.5488432181 3.0540787666 
Mo 3.1604334889 3.6209015365 9.2253322213 
S 1.5883015175 4.5618216736 7.6841725525 
S 3.1514889445 3.6401938723 4.6225548836 
S 3.1519310935 3.6391406475 1.4861211156 
S 1.5918309318 4.2732044717 10.9711601619 
Mo 0.0000170699 7.2774749019 -9.1672481230 
Mo 1.5756764447 6.3678236689 -3.0554877708 
S 0.0000381981 7.2774979204 -4.6232454413 
S 1.5756372420 6.3677884239 -7.6014065489 
S 1.5756376957 6.3677895528 -10.7330757790 
S 0.0000328088 7.2774946042 -1.4877307940 
Mo 0.0013191718 7.2775387638 3.0550796066 
Mo 1.5901184455 6.4094408051 9.1722201852 
S 0.0235677756 7.2764639239 7.6054167165 
S 1.5767061167 6.3669452885 4.6238276462 
S 1.5766544103 6.3684459379 1.4870846931 
S -0.0601538711 7.3423956950 10.7548243866 
Mo -1.5756002725 10.0065304219 -9.1672481230 
Mo 0.0000873425 9.0968676911 -3.0554912329 
S -1.5755883952 10.0065504530 -4.6232240150 
S 0.0000198996 9.0968439439 -7.6014065489 
S 0.0000203533 9.0968450728 -10.7330757790 
S -1.5755859047 10.0065492576 -1.4877362381 
Mo -1.5744595253 10.0071254459 3.0547287694 
Mo 0.0059458217 9.1203831022 9.1407473320 
S -1.5635804590 10.0149901777 7.5635301468 
S 0.0015453540 9.0971782148 4.6220395865 
S 0.0010303643 9.0971350995 1.4871888320 
S -1.5645670196 10.0115073377 10.7134246912 
Mo 6.3024915177 1.8193638619 -9.1672481230 
Mo 7.8781001445 0.9096521684 -3.0554919963 
S 6.3025008696 1.8193826232 -4.6232480596 
S 7.8781116898 0.9096773839 -7.6014065489 
S 7.8781121435 0.9096785128 -10.7330757790 
S 6.3025042007 1.8193849068 -1.4877147524 
Mo 6.3034990642 1.8205056850 3.0547150180 
Mo 7.8929464488 0.9204325596 9.1452669254 
S 6.3172473953 1.8359880040 7.5793660546 
S 7.8795388340 0.9109725451 4.6216802422 
S 7.8789306796 0.9105095570 1.4867471678 
S 6.3204391686 1.8154635567 10.7207884054 
Mo 4.7268741753 4.5484193819 -9.1672481230 
Mo 6.3024679138 3.6387501714 -3.0554895197 
S 4.7268748770 4.5484386753 -4.6232519432 
S 6.3024943474 3.6387329039 -7.6014065489 
S 6.3024948011 3.6387340328 -10.7330757790 
S 4.7268770533 4.5484432419 -1.4877137856 
Mo 4.7273430971 4.5489428073 3.0540982598 
Mo 6.3148688487 3.6414446037 9.1659782351 
S 4.7186225663 4.5422158559 7.6161283629 
S 6.3030311606 3.6403287257 4.6223157830 
S 6.3032712727 3.6393568868 1.4867263633 
S 4.7596598616 4.5620537326 10.7498296890 
Mo 3.1512568329 7.2774749019 -9.1672481230 
Mo 4.7268384135 6.3678043337 -3.0554959052 
S 3.1512606125 7.2774972547 -4.6232589675 
S 4.7268770050 6.3677884239 -7.6014065489 
S 4.7268774587 6.3677895528 -10.7330757790 
S 3.1512629079 7.2774963749 -1.4877081835 
Mo 3.1520195879 7.2775899645 3.0551518557 
Mo 4.7460980228 6.3724933489 9.1654473457 
S 3.1552812487 7.2773863402 7.6049216481 
S 4.7278043239 6.3674459824 4.6226335501 
S 4.7273585591 6.3684456500 1.4869373760 
S 3.2431996334 7.3407905262 10.7551129598 
Mo 1.5756394905 10.0065304219 -9.1672481230 
Mo 3.1512330605 9.0968514907 -3.0554878870 
S 1.5756499830 10.0065443759 -4.6232632674 
S 3.1512596626 9.0968439439 -7.6014065489 
S 3.1512601163 9.0968450728 -10.7330757790 
S 1.5756503041 10.0065459699 -1.4877044377 
Mo 1.5766975898 10.0073511839 3.0544883079 
Mo 3.1754673046 9.1195407785 9.1426296233 
S 1.5919154803 10.0202545679 7.5713324718 
S 3.1521924241 9.0973542002 4.6218520721 
S 3.1519522027 9.0970330287 1.4869728228 
S 1.5902641779 10.0176102551 10.7061352713 
Mo 9.4537312807 1.8193638619 -9.1672481230 
Mo 11.0293863460 0.9096952246 -3.0554894007 
S 9.4537395970 1.8193770750 -4.6232328036 
S 11.0293514528 0.9096773839 -7.6014065489 
S 11.0293519066 0.9096785128 -10.7330757790 
S 9.4537393632 1.8193794783 -1.4877366147 
Mo 9.4549430055 1.8205290025 3.0542291723 
Mo 11.0384144958 0.9056866533 9.1446614275 
S 9.4700704316 1.8373830439 7.5826176403 
S 11.0307494339 0.9109492983 4.6218619493 
S 11.0305642953 0.9104924893 1.4868184987 
S 9.4649274437 1.8149362379 10.7223711644 
Mo 7.8781139383 4.5484193819 -9.1672481230 
Mo 9.4537539161 3.6387607911 -3.0554933032 
S 7.8781175448 4.5484378232 -4.6232366318 
S 9.4537341104 3.6387329039 -7.6014065489 
S 9.4537345641 3.6387340328 -10.7330757790 
S 7.8781194018 4.5484411585 -1.4877377057 
Mo 7.8791480573 4.5490182364 3.0543608989 
Mo 9.4696833073 3.6422720102 9.1694294795 
S 7.8933928905 4.5494326998 7.5952339756 
S 9.4556216072 3.6401940692 4.6219457767 
S 9.4547315635 3.6395497952 1.4863710650 
S 7.8903669076 4.5589175967 10.7276217415 
Mo 6.3024965959 7.2774749019 -9.1672481230 
Mo 7.8781361655 6.3678242352 -3.0555014130 
S 6.3024973331 7.2774953556 -4.6232392528 
S 7.8781167680 6.3677884239 -7.6014065489 
S 7.8781172217 6.3677895528 -10.7330757790 
S 6.3024989866 7.2774929744 -1.4877349119 
Mo 6.3032707748 7.2777027815 3.0544973112 
Mo 7.8922395052 6.3752096889 9.1513974442 
S 6.3117788535 7.2718652962 7.5806985949 
S 7.8793422067 6.3680362505 4.6219124679 
S 7.8788697092 6.3682428291 1.4866704445 
S 6.3264761665 7.2894106535 10.7219728508 
Mo 4.7268792535 10.0065304219 -9.1672481230 
Mo 6.3025111524 9.0968738021 -3.0554915260 
S 4.7268840634 10.0065452125 -4.6232380477 
S 6.3024994256 9.0968439439 -7.6014065489 
S 6.3024998793 9.0968450728 -10.7330757790 
S 4.7268847312 10.0065459141 -1.4877283294 
Mo 4.7278011365 10.0071815212 3.0543003147 
Mo 6.3162572366 9.0989282725 9.1411993323 
S 4.7446554587 10.0147096762 7.5664355427 
S 6.3036907144 9.0973662836 4.6211518806 
S 6.3031562041 9.0970894113 1.4864835709 
S 4.7468746570 10.0103662387 10.7157071092 
Pd 1.5931720051 6.2928815198 12.0610398582 
H 1.5967473396 3.1829011156 11.8653605635 

