&CONTROL
   calculation      = 'relax'
   restart_mode     = 'from_scratch'
   wf_collect       = .true.
   nstep            = 1000
   tstress          = .false.
   tprnfor          = .true.
   outdir           = './outdir'
   pseudo_dir       = './pseudo'
/
&SYSTEM
   ecutwfc          = 77.0
   ecutrho          = 539.0
   nosym            = .true.
   occupations      = 'smearing'
   degauss          = 0.01
   smearing         = 'gaussian'
   assume_isolated  = 'esm'
   esm_bc           = 'bc1'
   vdw_corr         = 'dft-d3'
   dftd3_version    = 4
   ntyp             = 3
   nat              = 148
   ibrav            = 0
/
&ELECTRONS
   electron_maxstep = 1000
   conv_thr         = 1e-06
   mixing_beta      = 0.2
   diagonalization  = 'david'
/
&IONS
/
&CELL
/

ATOMIC_SPECIES
Mo 95.95 Mo.pbe-spn-kjpaw_psl.1.0.0.UPF
S 32.06 S.pbe-n-kjpaw_psl.1.0.0.UPF
Pt 195.084 Pt.pbe-spfn-kjpaw_psl.1.0.0.UPF

K_POINTS automatic
2 2 1  0 0 0

CELL_PARAMETERS angstrom
12.61532217525308 0.00000000000000 0.00000000000000
-6.30767370294872 10.92519700214573 0.00000000000000
0.00000000000000 0.00000000000000 30.30125956094956

ATOMIC_POSITIONS angstrom
Mo 1.5628071158 2.7048002029 6.0927517906 
Mo 1.5769197498 0.9104407117 -6.0872367793  0 0 0
Mo 0.0003233783 1.8191739156 0.0010039491 
S 0.0000044503 0.0000077495 -7.6506323570  0 0 0
S 1.5770379620 0.9089618620 -1.5649308936 
S -0.0053063255 1.8089819981 4.5165094876 
S 0.0000053241 0.0000068460 -4.5222282367  0 0 0
S 1.5774765728 0.9084240940 1.5679894718 
S -0.0101500518 1.8115383192 7.6698400367 
Mo -0.0175039879 5.4446038806 6.0971139790 
Mo 0.0000011799 3.6417399547 -6.0872367793  0 0 0
Mo -1.5770118518 4.5504056445 0.0007489241 
S -1.5769141197 2.7313069925 -7.6506323570  0 0 0
S 0.0004915445 3.6403923207 -1.5642064666 
S -1.5844794653 4.5376430174 4.5210414762 
S -1.5769132459 2.7313060890 -4.5222282367  0 0 0
S -0.0002420355 3.6397831249 1.5684017805 
S -1.5937185309 4.5332006126 7.6607781396 
Mo -1.5928558435 8.1774356945 6.0846506302 
Mo -1.5769173901 6.3730391977 -6.0872367793  0 0 0
Mo -3.1539818864 7.2819659306 -0.0002207365 
S -3.1538326896 5.4626062355 -7.6506323570  0 0 0
S -1.5761345544 6.3714870903 -1.5647282434 
S -3.1591838623 7.2694715308 4.5157852039 
S -3.1538318159 5.4626053320 -4.5222282367  0 0 0
S -1.5781986688 6.3711284350 1.5673156095 
S -3.1485821454 7.2672376055 7.6675571807 
Mo 3.1500747917 -0.0130053921 6.0855187152 
Mo -3.1538359601 9.1043384407 -6.0872367793  0 0 0
Mo -4.7307442348 10.0131129534 0.0006259129 
S -4.7307512596 8.1939054785 -7.6506323570  0 0 0
S -3.1536728907 9.1031479910 -1.5653505840 
S -4.7326845179 10.0027016962 4.5203908570 
S -4.7307503859 8.1939045750 -4.5222282367  0 0 0
S -3.1539467810 9.1025131745 1.5674674969 
S -4.7277623259 10.0062546451 7.6570355525 
Mo 4.7370048399 2.7018758892 6.0951676767 
Mo 4.7307503218 0.9104407117 -6.0872367793  0 0 0
Mo 3.1539585393 1.8193591505 0.0006746790 
S 3.1538350223 0.0000077495 -7.6506323570  0 0 0
S 4.7306207270 0.9087060650 -1.5653131257 
S 3.1502706278 1.8059314398 4.5203293833 
S 3.1538358961 0.0000068460 -4.5222282367  0 0 0
S 4.7308285371 0.9088516454 1.5674964390 
S 3.1495494775 1.7996527340 7.6570463185 
Mo 3.1487761117 5.3904934815 6.0838211829 
Mo 3.1538317519 3.6417399547 -6.0872367793  0 0 0
Mo 1.5770445383 4.5507038050 0.0020011052 
S 1.5769164523 2.7313069925 -7.6506323570  0 0 0
S 3.1534534459 3.6406346811 -1.5644211411 
S 1.5632325068 4.5239974076 4.5345333052 
S 1.5769173261 2.7313060890 -4.5222282367  0 0 0
S 3.1544943993 3.6399570001 1.5688550336 
S 1.5077777222 4.4852578436 7.7111968583 
Mo 1.5181492197 8.2127687931 6.0457807093 
Mo 1.5769131819 6.3730391977 -6.0872367793  0 0 0
Mo 0.0000967452 7.2817519993 0.0020009031 
S -0.0000021176 5.4626062355 -7.6506323570  0 0 0
S 1.5772528721 6.3717603707 -1.5630923706 
S -0.0319307118 7.2595897373 4.5128641663 
S -0.0000012439 5.4626053320 -4.5222282367  0 0 0
S 1.5768300707 6.3711543671 1.5704209721 
S -0.0509855517 7.2592866121 7.6884375934 
Mo 6.3008419349 -0.0007517878 6.0846022958 
Mo -0.0000053881 9.1043384407 -6.0872367793  0 0 0
Mo -1.5768297428 10.0131432738 0.0007618567 
S -1.5769206876 8.1939054785 -7.6506323570  0 0 0
S 0.0006466376 9.1025157254 -1.5637560520 
S -1.5847517649 10.0041987697 4.5155548011 
S -1.5769198139 8.1939045750 -4.5222282367  0 0 0
S -0.0003436714 9.1028432643 1.5693012220 
S -1.5830984579 10.0030622988 7.6497560323 
Mo 7.8797739549 2.7174456342 6.0889655363 
Mo 7.8845808939 0.9104407117 -6.0872367793  0 0 0
Mo 6.3075781929 1.8193903666 -0.0001721306 
S 6.3076655943 0.0000077495 -7.6506323570  0 0 0
S 7.8850794802 0.9083768284 -1.5647135555 
S 6.3041744425 1.8098509643 4.5156682333 
S 6.3076664681 0.0000068460 -4.5222282367  0 0 0
S 7.8841948838 0.9099508046 1.5673618737 
S 6.3111779486 1.8014731623 7.6675689686 
Mo 6.3177767901 5.4416519079 6.1076773244 
Mo 6.3076623239 3.6417399547 -6.0872367793  0 0 0
Mo 4.7308502126 4.5506864641 0.0006387224 
S 4.7307470244 2.7313069925 -7.6506323570  0 0 0
S 6.3074236108 3.6403628430 -1.5656075101 
S 4.7389174650 4.5230693073 4.5399678058 
S 4.7307478981 2.7313060890 -4.5222282367  0 0 0
S 6.3078629178 3.6399983825 1.5671677429 
S 4.7940186177 4.4799070639 7.7172243480 
Mo 4.7775371392 8.2117753017 6.0835260419 
Mo 4.7307437539 6.3730391977 -6.0872367793  0 0 0
Mo 3.1539593150 7.2818617219 0.0028389321 
S 3.1538284544 5.4626062355 -7.6506323570  0 0 0
S 4.7299237695 6.3720455985 -1.5642802108 
S 3.1631429304 7.2629967967 4.5481537869 
S 3.1538293281 5.4626053320 -4.5222282367  0 0 0
S 4.7319569382 6.3706983465 1.5690441155 
S 3.1257447189 7.2846546911 7.4929391901 
Mo 9.4552152114 0.0015348809 6.0970670256 
Mo 3.1538251839 9.1043384407 -6.0872367793  0 0 0
Mo 1.5771147676 10.0132288462 0.0020061421 
S 1.5769098844 8.1939054785 -7.6506323570  0 0 0
S 3.1538421906 9.1025277535 -1.5631159184 
S 1.5686377496 10.0318994585 4.5127487167 
S 1.5769107581 8.1939045750 -4.5222282367  0 0 0
S 3.1540004061 9.1028679088 1.5703901402 
S 1.5591383192 10.0480668437 7.6884412331 
Mo -1.5806882415 2.7184061444 6.0888988837 
Mo 11.0384114659 0.9104407117 -6.0872367793  0 0 0
Mo 9.4616499985 1.8195301744 0.0007414699 
S 9.4614961663 0.0000077495 -7.6506323570  0 0 0
S 11.0386045889 0.9085976598 -1.5642301282 
S 9.4573382023 1.8122918312 4.5210456021 
S 9.4614970401 0.0000068460 -4.5222282367  0 0 0
S 11.0385470648 0.9091364746 1.5683661737 
S 9.4563771377 1.8221582933 7.6607898930 
Mo -3.1573413908 5.4509622855 6.0889703469 
Mo 9.4614928959 3.6417399547 -6.0872367793  0 0 0
Mo 7.8846069032 4.5505950246 -0.0001813424 
S 7.8845775964 2.7313069925 -7.6506323570  0 0 0
S 9.4619687819 3.6400359569 -1.5651561270 
S 7.8798605910 4.5398863835 4.5240118963 
S 7.8845784701 2.7313060890 -4.5222282367  0 0 0
S 9.4608646641 3.6404208649 1.5679782897 
S 7.8993146132 4.5284637314 7.6639924981 
Mo -4.7153441981 8.1804627382 6.0952024407 
Mo 7.8845743259 6.3730391977 -6.0872367793  0 0 0
Mo 6.3076378487 7.2818199970 0.0005742029 
S 6.3076590264 5.4626062355 -7.6506323570  0 0 0
S 7.8843684301 6.3717295631 -1.5656475874 
S 6.3240417801 7.2683661416 4.5398210527 
S 6.3076599001 5.4626053320 -4.5222282367  0 0 0
S 7.8846745764 6.3712129821 1.5671179809 
S 6.3882771353 7.2421704468 7.7170099297 
Mo 0.0026984637 0.0028188880 6.0927301591 
Mo 6.3076557559 9.1043384407 -6.0872367793  0 0 0
Mo 4.7307362796 10.0131183830 0.0019386075 
S 4.7307404564 8.1939054785 -7.6506323570  0 0 0
S 6.3071543835 9.1030773359 -1.5644909494 
S 4.7352225893 10.0184821974 4.5342851478 
S 4.7307413301 8.1939045750 -4.5222282367  0 0 0
S 6.3080452210 9.1021596244 1.5687784941 
S 4.7408353058 10.0847771247 7.7110043891 
Pt 3.1716824325 5.6243766762 9.0294055823 
Pt 4.5854310459 8.0734232006 9.0305609483 
Pt 1.7856019775 8.0570987997 9.1213067796 
Pt -0.0180000000 5.4450000000 9.2110000000 

