SystemName	siesta
SystemLabel	siesta

%block ExternalElectricField
0.0 0.0 0.0514220632 V/Ang
%endblock ExternalElectricField
MaxSCFIterations	2000
SCF.DM.Tolerance	1e-08
SCFMustConverge	False
SolutionMethod	diagon
WriteCoorCerius	True
WriteCoorStep	True
WriteCoorXmol	True
WriteForces	True
WriteMDHistory	True
WriteMDXmol	True
siesta2Wannier90.WriteAmn	True
siesta2Wannier90.WriteEig	True
siesta2Wannier90.WriteMmn	True
siesta2Wannier90.WriteUnk	False

Spin     	non-polarized
XC.functional	GGA
XC.authors	PBE

MeshCutoff	680.2846506091811	eV
PAO.EnergyShift	0.1	eV

NumberOfSpecies	2
NumberOfAtoms	15
%block ChemicalSpecieslabel
    1 1 H.gga.1
    2 8 O.gga.2
%endblock ChemicalSpecieslabel

%block PAO.BasisSizes
    H.gga.1	SZ
    O.gga.2	SZ
%endblock PAO.BasisSizes


LatticeConstant	1.0 Ang
%block LatticeVectors
    30.000000000000000     0.000000000000000     0.000000000000000 
    0.000000000000000     30.000000000000000     0.000000000000000 
    0.000000000000000     0.000000000000000     30.000000000000000 
%endblock LatticeVectors


AtomicCoordinatesFormat  Ang
%block AtomicCoordinatesAndAtomicSpecies
    14.197910844     15.408801972     16.530192646 1
    14.020310844     16.993001972     16.881192646 1
    14.682710844     16.267001972     16.699192646 2
    14.650810844     14.078901972     13.383892646 1
    13.290510844     14.758501972     12.788492646 1
    13.672710844     13.944201972     13.225292646 2
    12.041510844     14.310601972     16.157192646 1
    13.062710844     14.024201972     14.915292646 1
    12.939010844     13.948901972     15.905192646 2
    17.543710844     17.802001972     15.911192646 1
    16.424710844     16.612001972     15.897192646 1
    17.228710844     16.983001972     15.431692646 2
    16.772710844     14.665801972     13.469192646 1
    17.092710844     13.072901972     13.304892646 1
    16.533710844     13.748101972     13.786592646 2
%endblock AtomicCoordinatesAndAtomicSpecies

%block DM.InitSpin
%endblock DM.InitSpin

DM.UseSaveDM	True

Siesta2Wannier90.NumberOfBands   20
