num_wann            = 98
translate_home_cell = true
guiding_centres     = true
write_xyz           = True
conv_tol            = 1e-10
conv_window         = 5
iprint              = 2
num_iter            = 10000
mp_grid             : 1 1 1
gamma_only          = true
begin kpoints
  0.0000  0.0000  0.0000
end kpoints
begin atoms_cart
Ang
  C      15.746803422651391   17.086747   16.986478332610623
  C      17.20347842265139   16.996968   15.139509332610626
  C      17.358631422651392   15.753655   13.296337332610625
  C      13.93143542265139   15.966212   17.641758332610625
  C      15.37349742265139   17.629787   18.284325332610624
  C      14.234450422651392   16.926601   18.696909332610623
  C      13.63822742265139   17.200305   19.926571332610624
  C      14.21351842265139   18.186414   20.712445332610624
  C      15.348003422651392   18.889114   20.297054332610625
  C      15.945551422651391   18.62269   19.072841332610622
  C      18.406969422651393   17.440038   14.445595332610624
  C      19.359123422651393   18.400911999999998   14.757303332610626
  C      20.42177442265139   18.553293   13.880790332610625
  C      20.534854422651392   17.768094   12.731201332610624
  C      19.58254342265139   16.808191   12.415531332610625
  C      18.512041422651393   16.653383   13.291054332610624
  C      12.641368422651391   14.246345   16.703662332610627
  C      16.06856442265139   14.033788   12.358242332610626
  C      11.48795842265139   13.346617   16.708946332610623
  C      14.253196422651392   12.913253000000001   13.013522332610624
  C      12.796521422651391   13.003032   14.860490332610624
  C      15.765549422651391   13.073399   11.303090332610624
  C      11.593030422651392   12.559962   15.554404332610625
  C      10.41745642265139   13.191809   17.584468332610626
  C      14.626502422651392   12.370213   11.715674332610625
  C      16.36177242265139   12.799695   10.073428332610625
  C      10.640877422651391   11.599088   15.242696332610624
  C      9.465145422651391   12.231906   17.268798332610626
  C      14.05444842265139   11.37731   10.927158332610624
  C      15.786481422651391   11.813586   9.287554332610625
  C      9.578225422651391   11.446707   16.119209332610623
  C      14.65199642265139   11.110886   9.702945332610625
  H      12.866217422651392   16.727948   20.215462332610624
  H      13.82634342265139   18.39027   21.555724332610623
  H      15.71564642265139   19.559508   20.860985332610625
  H      16.71500442265139   19.099754   18.784891332610627
  H      19.285093422651393   18.933406   15.540618332610626
  H      21.08741642265139   19.20512   14.065998332610626
  H      21.27842242265139   17.893731   12.153303332610625
  H      19.65895042265139   16.276977   11.631489332610624
  H      10.341049422651391   13.723023   18.368510332610626
  H      17.133782422651393   13.272052   9.784537332610626
  H      10.71490642265139   11.066594   14.459381332610626
  H      8.721577422651391   12.106269000000001   17.846696332610627
  H      13.284995422651392   10.900246   11.215108332610626
  H      16.17365642265139   11.609729999999999   8.444275332610625
  H      8.912583422651391   10.79488   15.934001332610626
  H      14.28435342265139   10.440491999999999   9.139014332610625
  N      14.876491422651391   16.093844   16.645712332610625
  N      16.79695542265139   17.529817   16.293555332610623
  N      16.61963042265139   15.989506   14.426609332610624
  N      12.891560422651391   15.131513   17.670486332610626
  N      17.10843942265139   14.868487   12.329514332610625
  N      15.12350842265139   13.906156   13.354287332610625
  N      13.380369422651391   14.010494   15.573391332610624
  N      13.203044422651391   12.470183   13.706444332610625
  Zn      15.000000422651391   15.0   15.000000332610625
end atoms_cart
begin projections
  random
end projections
begin unit_cell_cart
Ang
  30.0     0.0     0.0
  0.0     30.0     0.0
  0.0     0.0     30.0
end_unit_cell_cart
