num_wann            = 20
translate_home_cell = true
guiding_centres     = true
write_xyz           = True
conv_tol            = 1e-10
conv_window         = 5
iprint              = 2
num_iter            = 10000
mp_grid             : 1 1 1
gamma_only          = true
begin kpoints
  0.0000  0.0000  0.0000
end kpoints
begin atoms_cart
Ang
  H      14.197910844296416   15.408801971690238   16.530192646128228
  H      14.020310844296418   16.993001971690248   16.881192646128227
  O      14.682710844296409   16.267001971690235   16.699192646128225
  H      14.650810844296416   14.078901971690243   13.383892646128231
  H      13.29051084429642   14.758501971690237   12.78849264612822
  O      13.672710844296418   13.944201971690248   13.225292646128224
  H      12.041510844296411   14.310601971690247   16.157192646128223
  H      13.062710844296419   14.024201971690246   14.915292646128222
  O      12.93901084429642   13.948901971690248   15.905192646128228
  H      17.543710844296413   17.802001971690245   15.911192646128228
  H      16.424710844296413   16.612001971690248   15.897192646128232
  O      17.228710844296415   16.983001971690243   15.431692646128226
  H      16.772710844296412   14.665801971690243   13.46919264612822
  H      17.09271084429642   13.072901971690243   13.304892646128224
  O      16.533710844296422   13.748101971690247   13.786592646128227
end atoms_cart
begin projections
  random
end projections
begin unit_cell_cart
Ang
  30.0     0.0     0.0
  0.0     30.0     0.0
  0.0     0.0     30.0
end_unit_cell_cart
