&CONTROL
   calculation      = 'scf'
   restart_mode     = 'from_scratch'
   wf_collect       = .true.
   tstress          = .false.
   tprnfor          = .true.
   outdir           = './outdir'
   pseudo_dir       = './pseudo'
/
&SYSTEM
   ecutwfc          = 77.0
   ecutrho          = 539.0
   nosym            = .true.
   occupations      = 'smearing'
   degauss          = 0.01
   smearing         = 'gaussian'
   assume_isolated  = 'esm'
   esm_bc           = 'bc1'
   vdw_corr         = 'dft-d3'
   dftd3_version    = 4
   ntyp             = 4
   nat              = 194
   ibrav            = 0
/
&ELECTRONS
   electron_maxstep = 1000
   conv_thr         = 1e-06
   mixing_beta      = 0.2
   diagonalization  = 'david'
/
&IONS
/
&CELL
/

ATOMIC_SPECIES
Mo 95.95 Mo.pbe-spn-kjpaw_psl.1.0.0.UPF
S 32.06 S.pbe-n-kjpaw_psl.1.0.0.UPF
Pd 106.42 Pd.pbe-spn-kjpaw_psl.1.0.0.UPF
H 1.008 H.pbe-kjpaw_psl.1.0.0.UPF

K_POINTS automatic
2 2 1  0 0 0

CELL_PARAMETERS angstrom
12.60495876880469 0.00000000000000 0.00000000000000
-6.30246677944357 10.91622202271285 0.00000000000000
0.00000000000000 0.00000000000000 36.46614571815195

ATOMIC_POSITIONS angstrom
Mo 0.0000119917 1.8193638619 -9.1672481230 
Mo 1.5756136568 0.9097075315 -3.0554901653 
S 0.0000188998 1.8193822938 -4.6232556019 
S 1.5756321638 0.9096773839 -7.6014065489 
S 1.5756326175 0.9096785128 -10.7330757790 
S 0.0000189190 1.8193860094 -1.4877129945 
Mo -0.0008968730 1.8149315876 3.0467249767 
Mo 1.5904131038 0.8841199745 9.1418006937 
S 0.0145492253 1.7966237152 7.5722472513 
S 1.5747415153 0.9051278490 4.6141060480 
S 1.5746604870 0.9052205398 1.4792870707 
S 0.0096967013 1.7778324441 10.7143570872 
Mo -1.5756053507 4.5484193819 -9.1672481230 
Mo 0.0000378379 3.6387394919 -3.0554952701 
S -1.5755913433 4.5484363582 -4.6232494962 
S 0.0000148214 3.6387329039 -7.6014065489 
S 0.0000152751 3.6387340328 -10.7330757790 
S -1.5755906502 4.5484413613 -1.4877305502 
Mo -1.5763107615 4.5441609697 3.0469541441 
Mo -0.0004835921 3.6028713244 9.1493617144 
S -1.5642839272 4.5271510314 7.5807020898 
S -0.0003659805 3.6344194648 4.6146347889 
S -0.0011803707 3.6343735463 1.4790208964 
S -1.5703315795 4.5147463676 10.7245011406 
Mo -3.1512226931 7.2774749019 -9.1672481230 
Mo -1.5755910988 6.3678216792 -3.0555115988 
S -3.1512162438 7.2774954350 -4.6232578178 
S -1.5756025210 6.3677884239 -7.6014065489 
S -1.5756020673 6.3677895528 -10.7330757790 
S -3.1512127704 7.2774877076 -1.4877200710 
Mo -3.1520003375 7.2728165421 3.0468308623 
Mo -1.5689540238 6.3371810751 9.1617283379 
S -3.1303145295 7.2520448472 7.5795033893 
S -1.5756402579 6.3635727570 4.6144986253 
S -1.5768388751 6.3633674333 1.4788909883 
S -3.1507133419 7.2570086642 10.7185962381 
Mo -4.7268400355 10.0065304219 -9.1672481230 
Mo -3.1512405618 9.0968403586 -3.0554816746 
S -4.7268341792 10.0065523623 -4.6232463762 
S -3.1512198634 9.0968439439 -7.6014065489 
S -3.1512194097 9.0968450728 -10.7330757790 
S -4.7268370797 10.0065537885 -1.4877176751 
Mo -4.7276669043 10.0019074225 3.0469140027 
Mo -3.1346466200 9.0736163854 9.1449634289 
S -4.7095850897 9.9807063554 7.5736689489 
S -3.1517619977 9.0919317082 4.6142752418 
S -3.1521460888 9.0924400567 1.4794151911 
S -4.7113787401 9.9825750729 10.7116859850 
Mo 3.1512517547 1.8193638619 -9.1672481230 
Mo 4.7269020221 0.9097289540 -3.0554823951 
S 3.1512612351 1.8193882564 -4.6232320683 
S 4.7268719268 0.9096773839 -7.6014065489 
S 4.7268723805 0.9096785128 -10.7330757790 
S 3.1512592485 1.8193890201 -1.4877261251 
Mo 3.1502245242 1.8150525678 3.0469720114 
Mo 4.7418336475 0.8877444551 9.1421807737 
S 3.1652799233 1.8029089942 7.5766721934 
S 4.7259719704 0.9050204660 4.6143812931 
S 4.7259219444 0.9053314360 1.4795093394 
S 3.1681205670 1.7762724039 10.7194096438 
Mo 1.5756344123 4.5484193819 -9.1672481230 
Mo 3.1512756394 3.6387769522 -3.0554814834 
S 1.5756504879 4.5484423799 -4.6232390542 
S 3.1512545844 3.6387329039 -7.6014065489 
S 3.1512550381 3.6387340328 -10.7330757790 
S 1.5756466253 4.5484431864 -1.4877251801 
Mo 1.5746121415 4.5442957578 3.0461981011 
Mo 3.1677797180 3.6067015556 9.1626795082 
S 1.5885884886 4.5497251285 7.6228107142 
S 3.1493005112 3.6346158390 4.6150776324 
S 3.1504247500 3.6343871791 1.4793495279 
S 1.5785407753 4.4395553189 10.7615970299 
Mo 0.0000170699 7.2774749019 -9.1672481230 
Mo 1.5756764447 6.3678236689 -3.0554877708 
S 0.0000381981 7.2774979204 -4.6232454413 
S 1.5756372420 6.3677884239 -7.6014065489 
S 1.5756376957 6.3677895528 -10.7330757790 
S 0.0000328088 7.2774946042 -1.4877307940 
Mo -0.0006824354 7.2728262148 3.0458440468 
Mo 1.5866650287 6.3456223007 9.2184108197 
S 0.0339056601 7.2413560990 7.6276111830 
S 1.5744078960 6.3632377995 4.6134311793 
S 1.5746643908 6.3635054832 1.4780570980 
S -0.0705720693 7.3017476123 10.7796513530 
Mo -1.5756002725 10.0065304219 -9.1672481230 
Mo 0.0000873425 9.0968676911 -3.0554912329 
S -1.5755883952 10.0065504530 -4.6232240150 
S 0.0000198996 9.0968439439 -7.6014065489 
S 0.0000203533 9.0968450728 -10.7330757790 
S -1.5755859047 10.0065492576 -1.4877362381 
Mo -1.5763321850 10.0018945639 3.0469800078 
Mo 0.0177714888 9.0818979204 9.1608008565 
S -1.5531862509 9.9794711581 7.5796041265 
S -0.0007060594 9.0911690765 4.6145195243 
S -0.0008096889 9.0929217924 1.4792039171 
S -1.5666648670 9.9953103840 10.7174112894 
Mo 6.3024915177 1.8193638619 -9.1672481230 
Mo 7.8781001445 0.9096521684 -3.0554919963 
S 6.3025008696 1.8193826232 -4.6232480596 
S 7.8781116898 0.9096773839 -7.6014065489 
S 7.8781121435 0.9096785128 -10.7330757790 
S 6.3025042007 1.8193849068 -1.4877147524 
Mo 6.3014854774 1.8149757837 3.0470150940 
Mo 7.8893197042 0.8906567457 9.1438577091 
S 6.3153638056 1.8007570985 7.5742838715 
S 7.8772709350 0.9051084946 4.6142202681 
S 7.8770300650 0.9052373819 1.4795154514 
S 6.3159812907 1.7979836408 10.7147552906 
Mo 4.7268741753 4.5484193819 -9.1672481230 
Mo 6.3024679138 3.6387501714 -3.0554895197 
S 4.7268748770 4.5484386753 -4.6232519432 
S 6.3024943474 3.6387329039 -7.6014065489 
S 6.3024948011 3.6387340328 -10.7330757790 
S 4.7268770533 4.5484432419 -1.4877137856 
Mo 4.7254121928 4.5441041259 3.0475156189 
Mo 6.3164956619 3.6170251249 9.1473390266 
S 4.7360783569 4.5280555673 7.5880189758 
S 6.3012581047 3.6343083796 4.6145333502 
S 6.3010886030 3.6346111462 1.4796914643 
S 4.7469652064 4.5216175960 10.7255235524 
Mo 3.1512568329 7.2774749019 -9.1672481230 
Mo 4.7268384135 6.3678043337 -3.0554959052 
S 3.1512606125 7.2774972547 -4.6232589675 
S 4.7268770050 6.3677884239 -7.6014065489 
S 4.7268774587 6.3677895528 -10.7330757790 
S 3.1512629079 7.2774963749 -1.4877081835 
Mo 3.1499029816 7.2728388945 3.0463311513 
Mo 4.7503355294 6.3455686842 9.1626243486 
S 3.1442526795 7.2394578543 7.6207783842 
S 4.7250733427 6.3635951173 4.6149108631 
S 4.7258573778 6.3632411681 1.4794049163 
S 3.2354787247 7.3095037565 10.7558381270 
Mo 1.5756394905 10.0065304219 -9.1672481230 
Mo 3.1512330605 9.0968514907 -3.0554878870 
S 1.5756499830 10.0065443759 -4.6232632674 
S 3.1512596626 9.0968439439 -7.6014065489 
S 3.1512601163 9.0968450728 -10.7330757790 
S 1.5756503041 10.0065459699 -1.4877044377 
Mo 1.5748109271 10.0018152175 3.0472846181 
Mo 3.1686923259 9.0911191584 9.1449978155 
S 1.5853348691 9.9837244627 7.5778955278 
S 3.1503125813 9.0913750758 4.6150649120 
S 3.1503062481 9.0927127983 1.4793637212 
S 1.5959549906 9.9952629061 10.7203786767 
Mo 9.4537312807 1.8193638619 -9.1672481230 
Mo 11.0293863460 0.9096952246 -3.0554894007 
S 9.4537395970 1.8193770750 -4.6232328036 
S 11.0293514528 0.9096773839 -7.6014065489 
S 11.0293519066 0.9096785128 -10.7330757790 
S 9.4537393632 1.8193794783 -1.4877366147 
Mo 9.4528112375 1.8149683098 3.0468223319 
Mo 11.0430343467 0.8859490941 9.1375108618 
S 9.4637918030 1.7991475778 7.5734770427 
S 11.0285446942 0.9051594674 4.6141555305 
S 11.0282288412 0.9050688641 1.4794226203 
S 9.4672349177 1.7958406676 10.7099239324 
Mo 7.8781139383 4.5484193819 -9.1672481230 
Mo 9.4537539161 3.6387607911 -3.0554933032 
S 7.8781175448 4.5484378232 -4.6232366318 
S 9.4537341104 3.6387329039 -7.6014065489 
S 9.4537345641 3.6387340328 -10.7330757790 
S 7.8781194018 4.5484411585 -1.4877377057 
Mo 7.8770747112 4.5439650629 3.0470167293 
Mo 9.4626612355 3.6164583500 9.1458142518 
S 7.8893758443 4.5268932547 7.5751252685 
S 9.4530943122 3.6343360772 4.6141894684 
S 9.4526929897 3.6345635625 1.4793663971 
S 7.8909990754 4.5271465280 10.7159192147 
Mo 6.3024965959 7.2774749019 -9.1672481230 
Mo 7.8781361655 6.3678242352 -3.0555014130 
S 6.3024973331 7.2774953556 -4.6232392528 
S 7.8781167680 6.3677884239 -7.6014065489 
S 7.8781172217 6.3677895528 -10.7330757790 
S 6.3024989866 7.2774929744 -1.4877349119 
Mo 6.3014286397 7.2727847165 3.0469897733 
Mo 7.8916591753 6.3458313640 9.1436127271 
S 6.3106623711 7.2517150707 7.5781724529 
S 7.8773300000 6.3631764821 4.6144465091 
S 7.8769786217 6.3632828099 1.4793585650 
S 6.3329655375 7.2620011059 10.7211797869 
Mo 4.7268792535 10.0065304219 -9.1672481230 
Mo 6.3025111524 9.0968738021 -3.0554915260 
S 4.7268840634 10.0065452125 -4.6232380477 
S 6.3024994256 9.0968439439 -7.6014065489 
S 6.3024998793 9.0968450728 -10.7330757790 
S 4.7268847312 10.0065459141 -1.4877283294 
Mo 4.7259208813 10.0018048917 3.0471725895 
Mo 6.3180075927 9.0741201493 9.1426094607 
S 4.7416383163 9.9821813348 7.5704272735 
S 6.3018103137 9.0918752001 4.6142690544 
S 6.3014384305 9.0922998973 1.4794992142 
S 4.7508925318 9.9948292801 10.7126433216 
Pd 1.6543100330 6.3246190527 12.1820308271 
H 2.5001091519 5.8800886201 13.4514490540 

