num_wann            = 196
num_bands           = 226
translate_home_cell = true
guiding_centres     = true
write_xyz           = True
conv_tol            = 1e-10
conv_window         = 5
dis_num_iter        = 100000
iprint              = 2
num_iter            = 10000
mp_grid             : 1 1 1
gamma_only          = true
begin kpoints
  0.0000  0.0000  0.0000
end kpoints
begin atoms_cart
Ang
  C      14.253196422651389   15.339702965353961   13.01352233261062
  C      12.796521422651388   15.429481965353961   14.86049033261062
  C      12.641368422651388   16.67279496535396   16.70366233261062
  C      16.068564422651388   16.46023796535396   12.358242332610622
  C      14.626502422651388   14.796662965353962   11.715674332610622
  C      15.765549422651388   15.499848965353962   11.303090332610621
  C      16.361772422651388   15.226144965353962   10.073428332610622
  C      15.786481422651388   14.240035965353961   9.287554332610622
  C      14.651996422651386   13.537335965353963   9.702945332610621
  C      14.054448422651387   13.803759965353962   10.92715833261062
  C      11.593030422651388   14.986411965353962   15.554404332610622
  C      10.640877422651387   14.025537965353962   15.24269633261062
  C      9.578225422651387   13.873156965353962   16.119209332610623
  C      9.465145422651387   14.658355965353962   17.268798332610622
  C      10.417456422651387   15.618258965353963   17.58446833261062
  C      11.487958422651387   15.773066965353962   16.708946332610623
  C      17.35863142265139   18.180105965353963   13.296337332610621
  C      13.931435422651386   18.392662965353964   17.64175833261062
  C      18.512041422651386   19.079832965353962   13.29105433261062
  C      17.203478422651386   19.423417965353963   15.139509332610622
  C      15.746803422651388   19.513196965353963   16.986478332610623
  C      14.234450422651388   19.35305096535396   18.696909332610623
  C      19.582543422651387   19.23464096535396   12.415531332610621
  C      18.406969422651386   19.86648796535396   14.44559533261062
  C      15.373497422651386   20.05623696535396   18.28432533261062
  C      13.638227422651386   19.62675496535396   19.92657133261062
  C      20.534854422651385   20.19454396535396   12.73120133261062
  C      19.359123422651386   20.827361965353962   14.757303332610622
  C      15.945551422651388   21.049139965353962   19.072841332610622
  C      14.213518422651386   20.61286396535396   20.71244533261062
  C      20.42177442265139   20.979742965353964   13.880790332610621
  C      15.348003422651388   21.31556396535396   20.29705433261062
  H      17.133782422651386   15.698501965353962   9.784537332610622
  H      16.173656422651387   14.036179965353963   8.444275332610621
  H      14.284353422651387   12.866941965353963   9.139014332610621
  H      13.284995422651388   13.326695965353961   11.215108332610622
  H      10.714906422651387   13.493043965353962   14.459381332610622
  H      8.912583422651387   13.221329965353963   15.934001332610622
  H      8.721577422651388   14.532718965353961   17.84669633261062
  H      10.341049422651388   16.14947296535396   18.36851033261062
  H      19.658950422651387   18.70342796535396   11.63148933261062
  H      12.866217422651388   19.15439796535396   20.21546233261062
  H      21.27842242265139   20.320180965353963   12.153303332610621
  H      19.285093422651386   21.359856965353963   15.540618332610622
  H      16.715004422651386   21.526203965353965   18.78489133261062
  H      13.826343422651387   20.81671996535396   21.555724332610623
  H      21.087416422651387   21.63156996535396   14.065998332610622
  H      15.715646422651387   21.98595796535396   20.86098533261062
  N      15.123508422651387   16.33260696535396   13.354287332610621
  N      13.203044422651388   14.896632965353962   13.706444332610621
  N      13.380369422651388   16.43694396535396   15.57339133261062
  N      17.108439422651387   17.294936965353962   12.329514332610621
  N      12.891560422651388   17.557962965353962   17.670486332610622
  N      16.619630422651387   18.415955965353962   14.42660933261062
  N      14.876491422651387   18.52029396535396   16.64571233261062
  N      16.796955422651386   19.95626696535396   16.293555332610623
  Zn      15.000000422651388   17.42644996535396   15.000000332610622
  C      15.746803422651388   14.660296965353961   16.986478332610623
  C      17.203478422651386   14.570517965353963   15.139509332610622
  C      17.35863142265139   13.327204965353962   13.296337332610621
  C      13.931435422651386   13.539761965353962   17.64175833261062
  C      15.373497422651386   15.203336965353962   18.28432533261062
  C      14.234450422651388   14.500150965353962   18.696909332610623
  C      13.638227422651386   14.773854965353962   19.92657133261062
  C      14.213518422651386   15.759963965353961   20.71244533261062
  C      15.348003422651388   16.46266396535396   20.29705433261062
  C      15.945551422651388   16.19623996535396   19.072841332610622
  C      18.406969422651386   15.013587965353961   14.44559533261062
  C      19.359123422651386   15.974461965353962   14.757303332610622
  C      20.42177442265139   16.126842965353962   13.880790332610621
  C      20.534854422651385   15.341643965353962   12.73120133261062
  C      19.582543422651387   14.381740965353963   12.415531332610621
  C      18.512041422651386   14.226932965353962   13.29105433261062
  C      12.641368422651388   11.819894965353962   16.70366233261062
  C      16.068564422651388   11.607337965353961   12.358242332610622
  C      11.487958422651387   10.920166965353962   16.708946332610623
  C      14.253196422651389   10.486802965353963   13.01352233261062
  C      12.796521422651388   10.576581965353961   14.86049033261062
  C      15.765549422651388   10.646948965353962   11.303090332610621
  C      11.593030422651388   10.133511965353962   15.554404332610622
  C      10.417456422651387   10.765358965353961   17.58446833261062
  C      14.626502422651388   9.943762965353962   11.715674332610622
  C      16.361772422651388   10.373244965353962   10.073428332610622
  C      10.640877422651387   9.172637965353962   15.24269633261062
  C      9.465145422651387   9.805455965353962   17.268798332610622
  C      14.054448422651387   8.950859965353962   10.92715833261062
  C      15.786481422651388   9.387135965353963   9.287554332610622
  C      9.578225422651387   9.020256965353962   16.119209332610623
  C      14.651996422651386   8.684435965353963   9.702945332610621
  H      12.866217422651388   14.301497965353962   20.21546233261062
  H      13.826343422651387   15.963819965353963   21.555724332610623
  H      15.715646422651387   17.133057965353963   20.86098533261062
  H      16.715004422651386   16.673303965353963   18.78489133261062
  H      19.285093422651386   16.506955965353963   15.540618332610622
  H      21.087416422651387   16.778669965353963   14.065998332610622
  H      21.27842242265139   15.467280965353961   12.153303332610621
  H      19.658950422651387   13.850526965353962   11.63148933261062
  H      10.341049422651388   11.296572965353961   18.36851033261062
  H      17.133782422651386   10.845601965353962   9.784537332610622
  H      10.714906422651387   8.640143965353962   14.459381332610622
  H      8.721577422651388   9.679818965353963   17.84669633261062
  H      13.284995422651388   8.473795965353961   11.215108332610622
  H      16.173656422651387   9.183279965353961   8.444275332610621
  H      8.912583422651387   8.368429965353961   15.934001332610622
  H      14.284353422651387   8.014041965353961   9.139014332610621
  N      14.876491422651387   13.667393965353963   16.64571233261062
  N      16.796955422651386   15.103366965353962   16.293555332610623
  N      16.619630422651387   13.563055965353962   14.42660933261062
  N      12.891560422651388   12.705062965353962   17.670486332610622
  N      17.108439422651387   12.442036965353962   12.329514332610621
  N      15.123508422651387   11.479705965353961   13.354287332610621
  N      13.380369422651388   11.584043965353962   15.57339133261062
  N      13.203044422651388   10.043732965353962   13.706444332610621
  Zn      15.000000422651388   12.573549965353962   15.000000332610622
end atoms_cart
begin projections
  random
end projections
begin unit_cell_cart
Ang
  30.0     0.0     0.0
  0.0     30.0     0.0
  0.0     0.0     30.0
end_unit_cell_cart
