&CONTROL
   calculation      = 'nscf'
   verbosity        = 'high'
   restart_mode     = 'from_scratch'
   wf_collect       = .true.
   outdir           = './outdir'
   pseudo_dir       = './pseudo'
/
&SYSTEM
   nbnd             = 1267
   ecutwfc          = 77.0
   ecutrho          = 539.0
   occupations      = 'tetrahedra'
   assume_isolated  = 'esm'
   esm_bc           = 'bc1'
   vdw_corr         = 'dft-d3'
   dftd3_version    = 4
   ntyp             = 4
   nat              = 146
   ibrav            = 0
/
&ELECTRONS
   electron_maxstep = 1000
   conv_thr         = 1e-06
   mixing_beta      = 0.2
   diagonalization  = 'david'
/
&IONS
/
&CELL
/

ATOMIC_SPECIES
Mo 95.95 Mo.pbe-spn-kjpaw_psl.1.0.0.UPF
S 32.06 S.pbe-n-kjpaw_psl.1.0.0.UPF
Pd 106.42 Pd.pbe-spn-kjpaw_psl.1.0.0.UPF
H 1.008 H.pbe-kjpaw_psl.1.0.0.UPF

K_POINTS automatic
2 2 1  0 0 0

CELL_PARAMETERS angstrom
12.61532217525308 0.00000000000000 0.00000000000000
-6.30767370294872 10.92519700214573 0.00000000000000
0.00000000000000 0.00000000000000 30.30125956094956

ATOMIC_POSITIONS angstrom
Mo 1.5633401319 2.7137379260 6.0953868161 
Mo 1.5769197498 0.9104407117 -6.0872367793 
Mo 0.0000877224 1.8207145003 0.0006958134 
S 0.0000044503 0.0000077495 -7.6506323570 
S 1.5756125085 0.9114222037 -1.5678817907 
S 0.0019246174 1.8204039637 4.4917106700 
S 0.0000053241 0.0000068460 -4.5222282367 
S 1.5768489491 0.9102964020 1.5672795101 
S -0.0106681874 1.8104476902 7.6136645580 
Mo -0.0143931889 5.4610691365 6.0883563849 
Mo 0.0000011799 3.6417399547 -6.0872367793 
Mo -1.5763802191 4.5514311921 -0.0007823354 
S -1.5769141197 2.7313069925 -7.6506323570 
S 0.0001875647 3.6407155637 -1.5666373859 
S -1.5780658787 4.5471835484 4.5119344456 
S -1.5769132459 2.7313060890 -4.5222282367 
S 0.0010960518 3.6418868900 1.5687619494 
S -1.6004271358 4.5639122856 7.6529850848 
Mo -1.5775733394 8.1947105326 6.0768652982 
Mo -1.5769173901 6.3730391977 -6.0872367793 
Mo -3.1537950855 7.2834458864 -0.0014086560 
S -3.1538326896 5.4626062355 -7.6506323570 
S -1.5764253525 6.3724082233 -1.5666393546 
S -3.1540450722 7.2865700301 4.5059052899 
S -3.1538318159 5.4626053320 -4.5222282367 
S -1.5768738301 6.3728070387 1.5656037603 
S -3.1516233272 7.2839543680 7.6466362700 
Mo 3.1530025343 -0.0006249277 6.0785644195 
Mo -3.1538359601 9.1043384407 -6.0872367793 
Mo -4.7312622339 10.0157529785 -0.0022187675 
S -4.7307512596 8.1939054785 -7.6506323570 
S -3.1538898042 9.1046172953 -1.5673370633 
S -4.7369928170 10.0142440654 4.5142445166 
S -4.7307503859 8.1939045750 -4.5222282367 
S -3.1544792882 9.1048808519 1.5646891204 
S -4.7207415140 10.0020269802 7.6508489974 
Mo 4.7470565806 2.7237654800 6.0880745721 
Mo 4.7307503218 0.9104407117 -6.0872367793 
Mo 3.1526559886 1.8210766515 -0.0017500677 
S 3.1538350223 0.0000077495 -7.6506323570 
S 4.7307056291 0.9107755698 -1.5666277640 
S 3.1505261719 1.8294952019 4.5207940624 
S 3.1538358961 0.0000068460 -4.5222282367 
S 4.7295179610 0.9103659472 1.5654339450 
S 3.1700757070 1.8141714888 7.6544478239 
Mo 3.1630521111 5.4698375361 6.1451587968 
Mo 3.1538317519 3.6417399547 -6.0872367793 
Mo 1.5770068832 4.5517337431 -0.0010050158 
S 1.5769164523 2.7313069925 -7.6506323570 
S 3.1541116012 3.6421337890 -1.5666482253 
S 1.6021286931 4.5576598053 4.5646523632 
S 1.5769173261 2.7313060890 -4.5222282367 
S 3.1535363715 3.6415805911 1.5667867296 
S 1.4896102977 4.5147262103 7.7128225247 
Mo 1.5703440185 8.2054674930 6.0867745229 
Mo 1.5769131819 6.3730391977 -6.0872367793 
Mo 0.0002458561 7.2834679455 -0.0008142096 
S -0.0000021176 5.4626062355 -7.6506323570 
S 1.5769259336 6.3727727452 -1.5665408232 
S 0.0021527383 7.2786300995 4.5145766380 
S -0.0000012439 5.4626053320 -4.5222282367 
S 1.5767239913 6.3722402226 1.5667906230 
S -0.0050045948 7.2863285761 7.6502219722 
Mo 6.3083144315 0.0005333082 6.0704499081 
Mo -0.0000053881 9.1043384407 -6.0872367793 
Mo -1.5768154934 10.0146894484 -0.0014229298 
S -1.5769206876 8.1939054785 -7.6506323570 
S 0.0004978062 9.1043356129 -1.5669368836 
S -1.5817698957 10.0149254279 4.5072823002 
S -1.5769198139 8.1939045750 -4.5222282367 
S -0.0005530545 9.1041639775 1.5669553025 
S -1.5755550767 10.0152581443 7.6434324933 
Mo 7.8764033462 2.7353696773 6.0732121901 
Mo 7.8845808939 0.9104407117 -6.0872367793 
Mo 6.3075448323 1.8210276010 -0.0000707128 
S 6.3076655943 0.0000077495 -7.6506323570 
S 7.8847574406 0.9102371861 -1.5659538895 
S 6.3049498639 1.8220573252 4.5027538074 
S 6.3076664681 0.0000068460 -4.5222282367 
S 7.8852647917 0.9106565707 1.5661207625 
S 6.3195839328 1.8062152141 7.6506357334 
Mo 6.3213892109 5.4632704645 6.0876796662 
Mo 6.3076623239 3.6417399547 -6.0872367793 
Mo 4.7306901492 4.5526301989 -0.0004894308 
S 4.7307470244 2.7313069925 -7.6506323570 
S 6.3074423648 3.6417575601 -1.5660720077 
S 4.7126212689 4.5646204319 4.5569340999 
S 4.7307478981 2.7313060890 -4.5222282367 
S 6.3066269308 3.6424375882 1.5674518589 
S 4.8293184602 4.5003014135 7.7082788575 
Mo 4.7371466814 8.1948333552 6.0883183855 
Mo 4.7307437539 6.3730391977 -6.0872367793 
Mo 3.1536520446 7.2829479157 -0.0000615216 
S 3.1538284544 5.4626062355 -7.6506323570 
S 4.7302863880 6.3729812408 -1.5666489689 
S 3.1535078274 7.2600338387 4.5538890218 
S 3.1538293281 5.4626053320 -4.5222282367 
S 4.7308476193 6.3729520243 1.5672073888 
S 3.1511783383 7.3944891599 7.7097871295 
Mo 9.4625876671 0.0023862351 6.0731560166 
Mo 3.1538251839 9.1043384407 -6.0872367793 
Mo 1.5768499552 10.0144609027 0.0000055372 
S 1.5769098844 8.1939054785 -7.6506323570 
S 3.1538405052 9.1043131634 -1.5657143614 
S 1.5797444866 10.0129290887 4.5056409024 
S 1.5769107581 8.1939045750 -4.5222282367 
S 3.1544516198 9.1036828358 1.5672091102 
S 1.5723938311 10.0308079728 7.6466481894 
Mo -1.5718487926 2.7271987037 6.0825617445 
Mo 11.0384114659 0.9104407117 -6.0872367793 
Mo 9.4625017572 1.8208922941 -0.0012779268 
S 9.4614961663 0.0000077495 -7.6506323570 
S 11.0394074128 0.9109222409 -1.5671789350 
S 9.4653772553 1.8279505639 4.5098281683 
S 9.4614970401 0.0000068460 -4.5222282367 
S 11.0388774200 0.9105300972 1.5676151290 
S 9.4443101735 1.8190369775 7.6460174054 
Mo -3.1626886516 5.4670429248 6.0726110825 
Mo 9.4614928959 3.6417399547 -6.0872367793 
Mo 7.8839703193 4.5524060849 -0.0004069359 
S 7.8845775964 2.7313069925 -7.6506323570 
S 9.4612376629 3.6419775679 -1.5662074690 
S 7.8792356918 4.5551263037 4.5047304686 
S 7.8845784701 2.7313060890 -4.5222282367 
S 9.4616591570 3.6417384198 1.5662450744 
S 7.8957942020 4.5504872236 7.6495725765 
Mo -4.7302866646 8.1852276775 6.0795809325 
Mo 7.8845743259 6.3730391977 -6.0872367793 
Mo 6.3073687244 7.2829140706 -0.0012011809 
S 6.3076590264 5.4626062355 -7.6506323570 
S 7.8843639791 6.3726681828 -1.5669038296 
S 6.3055969686 7.2798438215 4.5140038244 
S 6.3076599001 5.4626053320 -4.5222282367 
S 7.8845196975 6.3734923341 1.5658926266 
S 6.3126192236 7.2809183833 7.6538162876 
Mo -0.0002219723 0.0079703199 6.0838045701 
Mo 6.3076557559 9.1043384407 -6.0872367793 
Mo 4.7311474509 10.0154791336 -0.0008721720 
S 4.7307404564 8.1939054785 -7.6506323570 
S 6.3071793713 9.1040889726 -1.5668575229 
S 4.7396692019 10.0117326309 4.5128344395 
S 4.7307413301 8.1939045750 -4.5222282367 
S 6.3081689205 9.1044774791 1.5656838045 
S 4.7234384230 10.0170401404 7.6538236912 
Pd 3.1594073486 5.4678258198 9.0298037885 
H -0.0171521450 1.7982414566 9.0159141475 

