&CONTROL
   calculation      = 'scf'
   restart_mode     = 'from_scratch'
   wf_collect       = .true.
   tstress          = .false.
   tprnfor          = .true.
   outdir           = './outdir'
   pseudo_dir       = './pseudo'
/
&SYSTEM
   ecutwfc          = 77.0
   ecutrho          = 539.0
   occupations      = 'smearing'
   degauss          = 0.01
   smearing         = 'gaussian'
   assume_isolated  = 'esm'
   esm_bc           = 'bc1'
   vdw_corr         = 'dft-d3'
   dftd3_version    = 4
   ntyp             = 3
   nat              = 145
   ibrav            = 0
/
&ELECTRONS
   electron_maxstep = 1000
   conv_thr         = 1e-06
   mixing_beta      = 0.2
   diagonalization  = 'david'
/
&IONS
/
&CELL
/

ATOMIC_SPECIES
Mo 95.95 Mo.pbe-spn-kjpaw_psl.1.0.0.UPF
S 32.06 S.pbe-n-kjpaw_psl.1.0.0.UPF
Pd 106.42 Pd.pbe-spn-kjpaw_psl.1.0.0.UPF

K_POINTS automatic
2 2 1  0 0 0

CELL_PARAMETERS angstrom
12.61532217525308 0.00000000000000 0.00000000000000
-6.30767370294872 10.92519700214573 0.00000000000000
0.00000000000000 0.00000000000000 30.30125956094956

ATOMIC_POSITIONS angstrom
Mo 1.5768933344 2.7231703001 6.0769190121 
Mo 1.5769197498 0.9104407117 -6.0872367793 
Mo -0.0000427850 1.8209526279 -0.0009160990 
S 0.0000044503 0.0000077495 -7.6506323570 
S 1.5769005332 0.9105143758 -1.5663371471 
S -0.0049912073 1.8181410985 4.5175426680 
S 0.0000053241 0.0000068460 -4.5222282367 
S 1.5768992953 0.9104612426 1.5663194495 
S 0.0052799628 1.8230955467 7.6556188205 
Mo -0.0070433970 5.4666340673 6.0769269194 
Mo 0.0000011799 3.6417399547 -6.0872367793 
Mo -1.5768608103 4.5521003918 -0.0009049988 
S -1.5769141197 2.7313069925 -7.6506323570 
S -0.0001020301 3.6416916723 -1.5663963884 
S -1.5817625790 4.5491964521 4.5175483339 
S -1.5769132459 2.7313060890 -4.5222282367 
S 0.0002140022 3.6418734364 1.5664020444 
S -1.5723405227 4.5556098200 7.6556201717 
Mo -1.5752605584 8.1952799452 6.0870892246 
Mo -1.5769173901 6.3730391977 -6.0872367793 
Mo -3.1538433045 7.2834595895 -0.0009631812 
S -3.1538326896 5.4626062355 -7.6506323570 
S -1.5768726940 6.3729939315 -1.5663422166 
S -3.1527042694 7.2827827458 4.5214842983 
S -3.1538318159 5.4626053320 -4.5222282367 
S -1.5769150722 6.3730148993 1.5663306593 
S -3.1533708496 7.2831672124 7.6542053114 
Mo 3.1558636992 0.0007388045 6.0870881754 
Mo -3.1538359601 9.1043384407 -6.0872367793 
Mo -4.7307902156 10.0147929361 -0.0009659053 
S -4.7307512596 8.1939054785 -7.6506323570 
S -3.1539291451 9.1042798843 -1.5665330873 
S -4.7307776823 10.0160805056 4.5214818183 
S -4.7307503859 8.1939045750 -4.5222282367 
S -3.1537757415 9.1043743814 1.5661635359 
S -4.7307784068 10.0153117074 7.6542065054 
Mo 4.7289609318 2.7322991094 6.0893955677 
Mo 4.7307503218 0.9104407117 -6.0872367793 
Mo 3.1538189825 1.8209543534 -0.0009188377 
S 3.1538350223 0.0000077495 -7.6506323570 
S 4.7306286615 0.9105291225 -1.5665791909 
S 3.1587789117 1.8181415745 4.5175441573 
S 3.1538358961 0.0000068460 -4.5222282367 
S 4.7309438464 0.9103218915 1.5658985133 
S 3.1485061491 1.8230969682 7.6556179337 
Mo 3.1608291006 5.4666375805 6.0769221145 
Mo 3.1538317519 3.6417399547 -6.0872367793 
Mo 1.5768865374 4.5521687674 -0.0010336198 
S 1.5769164523 2.7313069925 -7.6506323570 
S 3.1538856035 3.6416882056 -1.5663973365 
S 1.5768919673 4.5521478488 4.5203275173 
S 1.5769173261 2.7313060890 -4.5222282367 
S 3.1535719623 3.6418727007 1.5664019500 
S 1.5768961440 4.5521420077 7.6452935650 
Mo 1.5768895585 8.1918456528 6.0893948334 
Mo 1.5769131819 6.3730391977 -6.0872367793 
Mo 0.0000625603 7.2834322860 -0.0009089586 
S -0.0000021176 5.4626062355 -7.6506323570 
S 1.5768856038 6.3731168164 -1.5663927241 
S 0.0001159108 7.2891003967 4.5175472729 
S -0.0000012439 5.4626053320 -4.5222282367 
S 1.5768899499 6.3727497677 1.5663990859 
S -0.0007271468 7.2777335870 7.6556205849 
Mo 6.3077747961 0.0000580101 6.0872788157 
Mo -0.0000053881 9.1043384407 -6.0872367793 
Mo -1.5769739307 10.0147519348 -0.0012467305 
S -1.5769206876 8.1939054785 -7.6506323570 
S -0.0000006538 9.1041994048 -1.5665804286 
S -1.5756750782 10.0154800990 4.5210665272 
S -1.5769198139 8.1939045750 -4.5222282367 
S -0.0000232368 9.1045788985 1.5659016020 
S -1.5757076048 10.0154620647 7.6559641952 
Mo 7.8845560876 2.7311306168 6.0872780945 
Mo 7.8845808939 0.9104407117 -6.0872367793 
Mo 6.3077111962 1.8208222708 -0.0012205654 
S 6.3076655943 0.0000077495 -7.6506323570 
S 7.8845489023 0.9104350156 -1.5666964532 
S 6.3066388048 1.8214258848 4.5225138949 
S 6.3076664681 0.0000068460 -4.5222282367 
S 7.8845509511 0.9104366800 1.5662991817 
S 6.3067152514 1.8213811045 7.6564329973 
Mo 6.3080091811 5.4604273233 6.0870883172 
Mo 6.3076623239 3.6417399547 -6.0872367793 
Mo 4.7306388353 4.5521040422 -0.0009104098 
S 4.7307470244 2.7313069925 -7.6506323570 
S 6.3075111077 3.6417690496 -1.5665776350 
S 4.7355492641 4.5491979811 4.5175460833 
S 4.7307478981 2.7313060890 -4.5222282367 
S 6.3078423310 3.6415978459 1.5658953821 
S 4.7261229672 4.5556150964 7.6556173342 
Mo 4.7290367170 8.1952840995 6.0870883596 
Mo 4.7307437539 6.3730391977 -6.0872367793 
Mo 3.1537134895 7.2834382374 -0.0009084411 
S 3.1538284544 5.4626062355 -7.6506323570 
S 4.7306472619 6.3729882606 -1.5663504746 
S 3.1536632931 7.2891049472 4.5175440432 
S 3.1538293281 5.4626053320 -4.5222282367 
S 4.7306872535 6.3730102196 1.5663287164 
S 3.1545073983 7.2777345836 7.6556190361 
Mo 9.4613458057 0.0000565024 6.0872774001 
Mo 3.1538251839 9.1043384407 -6.0872367793 
Mo 1.5768938979 10.0148520231 -0.0012187505 
S 1.5769098844 8.1939054785 -7.6506323570 
S 3.1537602381 9.1042001677 -1.5665768982 
S 1.5768861729 10.0135900000 4.5225119451 
S 1.5769107581 8.1939045750 -4.5222282367 
S 3.1537823718 9.1045743871 1.5658932999 
S 1.5768867416 10.0136783610 7.6564337685 
Mo -1.5751722437 2.7322971336 6.0893955376 
Mo 11.0384114659 0.9104407117 -6.0872367793 
Mo 9.4614079315 1.8208141587 -0.0012144517 
S 9.4614961663 0.0000077495 -7.6506323570 
S 11.0384796050 0.9105302236 -1.5665692399 
S 9.4624726258 1.8214249130 4.5225120098 
S 9.4614970401 0.0000068460 -4.5222282367 
S 11.0381632449 0.9103250833 1.5658845396 
S 9.4623971832 1.8213800409 7.6564337104 
Mo -3.1542262438 5.4604244233 6.0870895710 
Mo 9.4614928959 3.6417399547 -6.0872367793 
Mo 7.8845493730 4.5521915081 -0.0012527270 
S 7.8845775964 2.7313069925 -7.6506323570 
S 9.4615931702 3.6417768489 -1.5665843085 
S 7.8845536936 4.5506795052 4.5210692223 
S 7.8845784701 2.7313060890 -4.5222282367 
S 9.4612591927 3.6416014470 1.5659014879 
S 7.8845526691 4.5507172502 7.6559614687 
Mo -4.7307746243 8.1938831438 6.0856247389 
Mo 7.8845743259 6.3730391977 -6.0872367793 
Mo 6.3076140264 7.2834676554 -0.0009662632 
S 6.3076590264 5.4626062355 -7.6506323570 
S 7.8845505849 6.3731140297 -1.5665258021 
S 6.3064791184 7.2827843235 4.5214826291 
S 6.3076599001 5.4626053320 -4.5222282367 
S 7.8845473463 6.3729353668 1.5661637020 
S 6.3071449334 7.2831687704 7.6542053266 
Mo -0.0020736537 0.0007387233 6.0870884843 
Mo 6.3076557559 9.1043384407 -6.0872367793 
Mo 4.7307377412 10.0147622171 -0.0012556259 
S 4.7307404564 8.1939054785 -7.6506323570 
S 6.3077094142 9.1042761284 -1.5665260157 
S 4.7294447078 10.0154821001 4.5210648404 
S 4.7307413301 8.1939045750 -4.5222282367 
S 6.3075542236 9.1043680900 1.5661538537 
S 4.7294767428 10.0154634583 7.6559638102 
Pd 1.5769905256 4.5520136284 9.7996678811 

