&CONTROL
   calculation      = 'nscf'
   verbosity        = 'high'
   restart_mode     = 'from_scratch'
   wf_collect       = .true.
   outdir           = './outdir'
   pseudo_dir       = './pseudo'
/
&SYSTEM
   nbnd             = 1267
   ecutwfc          = 77.0
   ecutrho          = 539.0
   occupations      = 'tetrahedra'
   assume_isolated  = 'esm'
   esm_bc           = 'bc1'
   vdw_corr         = 'dft-d3'
   dftd3_version    = 4
   ntyp             = 4
   nat              = 146
   ibrav            = 0
/
&ELECTRONS
   electron_maxstep = 1000
   conv_thr         = 1e-06
   mixing_beta      = 0.2
   diagonalization  = 'david'
/
&IONS
/
&CELL
/

ATOMIC_SPECIES
Mo 95.95 Mo.pbe-spn-kjpaw_psl.1.0.0.UPF
S 32.06 S.pbe-n-kjpaw_psl.1.0.0.UPF
Pd 106.42 Pd.pbe-spn-kjpaw_psl.1.0.0.UPF
H 1.008 H.pbe-kjpaw_psl.1.0.0.UPF

K_POINTS automatic
2 2 1  0 0 0

CELL_PARAMETERS angstrom
12.61532217525308 0.00000000000000 0.00000000000000
-6.30767370294872 10.92519700214573 0.00000000000000
0.00000000000000 0.00000000000000 30.30125956094956

ATOMIC_POSITIONS angstrom
Mo 1.5530877716 2.7548839721 6.1468863787 
Mo 1.5769197498 0.9104407117 -6.0872367793 
Mo -0.0003303777 1.8258227252 -0.0042712656 
S 0.0000044503 0.0000077495 -7.6506323570 
S 1.5770592485 0.9151102618 -1.5691224798 
S 0.0112745830 1.8666009344 4.5253498663 
S 0.0000053241 0.0000068460 -4.5222282367 
S 1.5753895442 0.9142670243 1.5633157534 
S -0.0434147318 1.8056807633 7.6582264459 
Mo -0.0198545051 5.4793897543 6.1482778405 
Mo 0.0000011799 3.6417399547 -6.0872367793 
Mo -1.5766503619 4.5559307679 -0.0041277621 
S -1.5769141197 2.7313069925 -7.6506323570 
S 0.0000331527 3.6459625451 -1.5700884721 
S -1.5606815049 4.5876706005 4.5281759358 
S -1.5769132459 2.7313060890 -4.5222282367 
S 0.0000025572 3.6464151396 1.5636365308 
S -1.6399415994 4.5697948534 7.6593032149 
Mo -1.5824161006 8.2219819228 6.0873117333 
Mo -1.5769173901 6.3730391977 -6.0872367793 
Mo -3.1546951490 7.2871638556 -0.0046511628 
S -3.1538326896 5.4626062355 -7.6506323570 
S -1.5767004965 6.3769238649 -1.5690004076 
S -3.1464447464 7.3159904118 4.5046099922 
S -3.1538318159 5.4626053320 -4.5222282367 
S -1.5783075785 6.3767035721 1.5634241895 
S -3.1667070154 7.3112718225 7.6424939566 
Mo 3.1474322806 0.0305870242 6.0841034195 
Mo -3.1538359601 9.1043384407 -6.0872367793 
Mo -4.7317519978 10.0188772966 -0.0048835512 
S -4.7307512596 8.1939054785 -7.6506323570 
S -3.1538218030 9.1084094268 -1.5694004980 
S -4.7259874383 10.0497384792 4.5028805598 
S -4.7307503859 8.1939045750 -4.5222282367 
S -3.1559705046 9.1079594561 1.5625273946 
S -4.7397777888 10.0377312548 7.6397116596 
Mo 4.7311460396 2.7567775528 6.0807502770 
Mo 4.7307503218 0.9104407117 -6.0872367793 
Mo 3.1528964999 1.8251798737 -0.0016958150 
S 3.1538350223 0.0000077495 -7.6506323570 
S 4.7301414580 0.9142617085 -1.5666856270 
S 3.1284821135 1.8653243644 4.5370003486 
S 3.1538358961 0.0000068460 -4.5222282367 
S 4.7284765831 0.9143255076 1.5661939540 
S 3.1705955429 1.8392815959 7.6671485911 
Mo 3.1857293788 5.5131233852 6.0850169826 
Mo 3.1538317519 3.6417399547 -6.0872367793 
Mo 1.5759911753 4.5559026754 -0.0029947334 
S 1.5769164523 2.7313069925 -7.6506323570 
S 3.1535950068 3.6453813599 -1.5675190712 
S 1.5790612377 4.5866529103 4.6069204716 
S 1.5769173261 2.7313060890 -4.5222282367 
S 3.1516873626 3.6467047094 1.5665062663 
S 1.3377932516 4.4477631096 7.8889810928 
Mo 1.5718686253 8.2301077563 6.0835653588 
Mo 1.5769131819 6.3730391977 -6.0872367793 
Mo -0.0005467776 7.2867967182 -0.0018256293 
S -0.0000021176 5.4626062355 -7.6506323570 
S 1.5763079780 6.3768697492 -1.5677387293 
S -0.0029834191 7.2897562293 4.5411027654 
S -0.0000012439 5.4626053320 -4.5222282367 
S 1.5761054430 6.3755020248 1.5664757533 
S -0.0041340930 7.3375868214 7.6703702473 
Mo 6.3055893956 0.0304865338 6.0671422947 
Mo -0.0000053881 9.1043384407 -6.0872367793 
Mo -1.5778302920 10.0184650898 -0.0019515058 
S -1.5769206876 8.1939054785 -7.6506323570 
S -0.0006693749 9.1077918166 -1.5668122188 
S -1.5856344620 10.0407853382 4.5141705101 
S -1.5769198139 8.1939045750 -4.5222282367 
S -0.0017850180 9.1070259577 1.5661904864 
S -1.5767132257 10.0490081951 7.6446600753 
Mo 7.8801797274 2.7604852115 6.0589277360 
Mo 7.8845808939 0.9104407117 -6.0872367793 
Mo 6.3065528332 1.8244473071 -0.0009101537 
S 6.3076655943 0.0000077495 -7.6506323570 
S 7.8832005070 0.9137748280 -1.5666202011 
S 6.2947490233 1.8492444677 4.4994936568 
S 6.3076664681 0.0000068460 -4.5222282367 
S 7.8842952702 0.9147632839 1.5655921677 
S 6.3156979643 1.8450261441 7.6371215840 
Mo 6.3256936785 5.4929022759 6.0590633789 
Mo 6.3076623239 3.6417399547 -6.0872367793 
Mo 4.7295523718 4.5562250575 -0.0016807596 
S 4.7307470244 2.7313069925 -7.6506323570 
S 6.3063440114 3.6446700565 -1.5669668158 
S 4.7209332425 4.5877705618 4.5212166656 
S 4.7307478981 2.7313060890 -4.5222282367 
S 6.3070229438 3.6465907573 1.5646926221 
S 4.8173728680 4.5444508700 7.6682274487 
Mo 4.7389505356 8.2420491363 6.0589919247 
Mo 4.7307437539 6.3730391977 -6.0872367793 
Mo 3.1528614607 7.2869245195 -0.0019430596 
S 3.1538284544 5.4626062355 -7.6506323570 
S 4.7292153506 6.3762175017 -1.5678219352 
S 3.1514225167 7.3051176217 4.5223824644 
S 3.1538293281 5.4626053320 -4.5222282367 
S 4.7302155901 6.3775963779 1.5649875305 
S 3.1639157946 7.4111653692 7.6698931668 
Mo 9.4569793665 0.0292963957 6.0582129319 
Mo 3.1538251839 9.1043384407 -6.0872367793 
Mo 1.5755891573 10.0183523184 -0.0010053428 
S 1.5769098844 8.1939054785 -7.6506323570 
S 3.1518826436 9.1078817218 -1.5673384171 
S 1.5675124235 10.0350712823 4.4999232830 
S 1.5769107581 8.1939045750 -4.5222282367 
S 3.1536441000 9.1082824881 1.5645211010 
S 1.5743864583 10.0591769310 7.6382518731 
Mo -1.5914452506 2.7544059844 6.0789912937 
Mo 11.0384114659 0.9104407117 -6.0872367793 
Mo 9.4608883340 1.8250129931 -0.0023768203 
S 9.4614961663 0.0000077495 -7.6506323570 
S 11.0371656336 0.9146123484 -1.5686793494 
S 9.4618097676 1.8530610738 4.4955213358 
S 9.4614970401 0.0000068460 -4.5222282367 
S 11.0391249968 0.9156317469 1.5636228973 
S 9.4430166666 1.8417446349 7.6341053355 
Mo -3.1680686279 5.4926337739 6.0650091342 
Mo 9.4614928959 3.6417399547 -6.0872367793 
Mo 7.8840027080 4.5561584947 -0.0030316709 
S 7.8845775964 2.7313069925 -7.6506323570 
S 9.4606719091 3.6450899273 -1.5684376327 
S 7.8881294910 4.5801558551 4.4868907290 
S 7.8845784701 2.7313060890 -4.5222282367 
S 9.4622715182 3.6468929943 1.5639277467 
S 7.8819192539 4.5757334924 7.6345314920 
Mo -4.7292543998 8.2256185303 6.0656765898 
Mo 7.8845743259 6.3730391977 -6.0872367793 
Mo 6.3066186712 7.2873426429 -0.0035535223 
S 6.3076590264 5.4626062355 -7.6506323570 
S 7.8832917505 6.3762416785 -1.5693392263 
S 6.3129835754 7.3176749817 4.4923829094 
S 6.3076599001 5.4626053320 -4.5222282367 
S 7.8841557457 6.3777810941 1.5628002002 
S 6.3079826435 7.3154361162 7.6246271562 
Mo -0.0076089352 0.0214943705 6.0627131265 
Mo 6.3076557559 9.1043384407 -6.0872367793 
Mo 4.7298418625 10.0189822612 -0.0034069861 
S 4.7307404564 8.1939054785 -7.6506323570 
S 6.3061026372 9.1079535197 -1.5693929647 
S 4.7301453906 10.0508496164 4.4862304122 
S 4.7307413301 8.1939045750 -4.5222282367 
S 6.3072825222 9.1090700021 1.5624347929 
S 4.7236951224 10.0495654510 7.6326857189 
Pd 3.0894385554 5.4562631491 8.9745994300 
H 0.4006458267 3.9059106505 8.7920372549 

