&CONTROL
   calculation      = 'relax'
   restart_mode     = 'from_scratch'
   wf_collect       = .true.
   nstep            = 1000
   tstress          = .false.
   tprnfor          = .true.
   outdir           = './outdir'
   pseudo_dir       = './pseudo'
/
&SYSTEM
   ecutwfc          = 77.0
   ecutrho          = 539.0
   nosym            = .true.
   occupations      = 'smearing'
   degauss          = 0.01
   smearing         = 'gaussian'
   assume_isolated  = 'esm'
   esm_bc           = 'bc1'
   vdw_corr         = 'dft-d3'
   dftd3_version    = 4
   ntyp             = 4
   nat              = 146
   ibrav            = 0
/
&ELECTRONS
   electron_maxstep = 1000
   conv_thr         = 1e-06
   mixing_beta      = 0.2
   diagonalization  = 'david'
/
&IONS
/
&CELL
/

ATOMIC_SPECIES
Mo 95.95 Mo.pbe-spn-kjpaw_psl.1.0.0.UPF
S 32.06 S.pbe-n-kjpaw_psl.1.0.0.UPF
Pt 195.084 Pt.pbe-spfn-kjpaw_psl.1.0.0.UPF
Pd 106.42 Pd.pbe-spn-kjpaw_psl.1.0.0.UPF

K_POINTS automatic
2 2 1  0 0 0

CELL_PARAMETERS angstrom
12.61532217525308 0.00000000000000 0.00000000000000
-6.30767370294872 10.92519700214573 0.00000000000000
0.00000000000000 0.00000000000000 30.30125956094956

ATOMIC_POSITIONS angstrom
Mo 1.5706913990 2.7140638004 6.0922801209 
Mo 1.5769197498 0.9104407117 -6.0872367793  0 0 0
Mo 0.0001802565 1.8211304415 -0.0005097878 
S 0.0000044503 0.0000077495 -7.6506323570  0 0 0
S 1.5767379971 0.9109662914 -1.5666016266 
S 0.0037724889 1.8238142099 4.5068513944 
S 0.0000053241 0.0000068460 -4.5222282367  0 0 0
S 1.5772212792 0.9100404295 1.5658168660 
S -0.0145734204 1.8042368575 7.6470673511 
Mo -0.0180434439 5.4658278611 6.0922778846 
Mo 0.0000011799 3.6417399547 -6.0872367793  0 0 0
Mo -1.5766106120 4.5522062455 -0.0005094666 
S -1.5769141197 2.7313069925 -7.6506323570  0 0 0
S 0.0003152037 3.6419277548 -1.5659061160 
S -1.5724785797 4.5539589985 4.5068515317 
S -1.5769132459 2.7313060890 -4.5222282367  0 0 0
S 0.0011643856 3.6424186355 1.5671303509 
S -1.5986055406 4.5478571202 7.6470675921 
Mo -1.5789548537 8.1950512185 6.0809883216 
Mo -1.5769173901 6.3730391977 -6.0872367793  0 0 0
Mo -3.1538578396 7.2833243496 -0.0018961233 
S -3.1538326896 5.4626062355 -7.6506323570  0 0 0
S -1.5765598357 6.3726299948 -1.5666001288 
S -3.1538532709 7.2870559984 4.5096577244 
S -3.1538318159 5.4626053320 -4.5222282367  0 0 0
S -1.5771191514 6.3735103839 1.5658174085 
S -3.1538533764 7.2807006474 7.6450993295 
Mo 3.1538157553 -0.0023360134 6.0809911010 
Mo -3.1538359601 9.1043384407 -6.0872367793  0 0 0
Mo -4.7308984554 10.0148354422 -0.0018976748 
S -4.7307512596 8.1939054785 -7.6506323570  0 0 0
S -3.1538585474 9.1043314538 -1.5673215963 
S -4.7276515718 10.0129534801 4.5096572615 
S -4.7307503859 8.1939045750 -4.5222282367  0 0 0
S -3.1538595144 9.1043307676 1.5646083912 
S -4.7331578733 10.0161306515 7.6450990332 
Mo 4.7369365898 2.7140663214 6.0922805349 
Mo 4.7307503218 0.9104407117 -6.0872367793  0 0 0
Mo 3.1538108953 1.8211144367 -0.0009227304 
S 3.1538350223 0.0000077495 -7.6506323570  0 0 0
S 4.7308872343 0.9109676590 -1.5666014095 
S 3.1538145782 1.8225182347 4.5204377853 
S 3.1538358961 0.0000068460 -4.5222282367  0 0 0
S 4.7304016847 0.9100420436 1.5658165252 
S 3.1538171555 1.8118904827 7.6548692301 
Mo 3.1538081895 5.4625854551 6.1477145747 
Mo 3.1538317519 3.6417399547 -6.0872367793  0 0 0
Mo 1.5773095110 4.5524058041 -0.0004653355 
S 1.5769164523 2.7313069925 -7.6506323570  0 0 0
S 3.1538106772 3.6419203746 -1.5662032768 
S 1.6012327533 4.5662076223 4.5701868147 
S 1.5769173261 2.7313060890 -4.5222282367  0 0 0
S 3.1538086708 3.6418123827 1.5673617298 
S 1.4427765982 4.4747233064 7.7327310616 
Mo 1.5650824117 8.2078753758 6.0922797763 
Mo 1.5769131819 6.3730391977 -6.0872367793  0 0 0
Mo 0.0001895334 7.2833411768 -0.0009227934 
S -0.0000021176 5.4626062355 -7.6506323570  0 0 0
S 1.5770514975 6.3729407006 -1.5662031760 
S 0.0014142232 7.2826240029 4.5204356656 
S -0.0000012439 5.4626053320 -4.5222282367  0 0 0
S 1.5769583775 6.3729930378 1.5673632163 
S -0.0077862428 7.2879419109 7.6548649415 
Mo 6.3085856907 0.0005333385 6.0695546223 
Mo -0.0000053881 9.1043384407 -6.0872367793  0 0 0
Mo -1.5768234738 10.0148353863 -0.0018962881 
S -1.5769206876 8.1939054785 -7.6506323570  0 0 0
S 0.0005119801 9.1042044753 -1.5666011551 
S -1.5800641573 10.0129518482 4.5096570440 
S -1.5769198139 8.1939045750 -4.5222282367  0 0 0
S -0.0005317751 9.1042468251 1.5658182441 
S -1.5745553364 10.0161304696 7.6450996768 
Mo 7.8858805942 2.7305282348 6.0726587162 
Mo 7.8845808939 0.9104407117 -6.0872367793  0 0 0
Mo 6.3074413237 1.8211313563 -0.0005083998 
S 6.3076655943 0.0000077495 -7.6506323570  0 0 0
S 7.8842795205 0.9102752489 -1.5661113044 
S 6.3038574321 1.8238124277 4.5068445970 
S 6.3076664681 0.0000068460 -4.5222282367  0 0 0
S 7.8846424063 0.9104843877 1.5661194877 
S 6.3222058796 1.8042360432 7.6470666274 
Mo 6.3256655165 5.4658269529 6.0922786809 
Mo 6.3076623239 3.6417399547 -6.0872367793  0 0 0
Mo 4.7303063056 4.5524069955 -0.0004663067 
S 4.7307470244 2.7313069925 -7.6506323570  0 0 0
S 6.3073020373 3.6419277023 -1.5659047763 
S 4.7063960430 4.5662053962 4.5701828726 
S 4.7307478981 2.7313060890 -4.5222282367  0 0 0
S 6.3064538974 3.6424189247 1.5671299976 
S 4.8648262008 4.4747383510 7.7327361462 
Mo 4.7425347535 8.2078777694 6.0922797704 
Mo 4.7307437539 6.3730391977 -6.0872367793  0 0 0
Mo 3.1538052973 7.2829860231 -0.0004663606 
S 3.1538284544 5.4626062355 -7.6506323570  0 0 0
S 4.7305588953 6.3729388748 -1.5662029418 
S 3.1538096363 7.2553622695 4.5701806542 
S 3.1538293281 5.4626053320 -4.5222282367  0 0 0
S 4.7306516979 6.3729931047 1.5673648434 
S 3.1538113321 7.4382595759 7.7327406155 
Mo 9.4614784828 0.0015179475 6.0726572539 
Mo 3.1538251839 9.1043384407 -6.0872367793  0 0 0
Mo 1.5770164255 10.0144623023 -0.0005081700 
S 1.5769098844 8.1939054785 -7.6506323570  0 0 0
S 3.1538021418 9.1039429323 -1.5659058814 
S 1.5775554286 10.0100003780 4.5068411354 
S 1.5769107581 8.1939045750 -4.5222282367  0 0 0
S 3.1538032919 9.1029616164 1.5671297950 
S 1.5697760261 10.0356765665 7.6470642092 
Mo -1.5782504647 2.7305293439 6.0726623743 
Mo 11.0384114659 0.9104407117 -6.0872367793  0 0 0
Mo 9.4614719667 1.8208670195 -0.0012002662 
S 9.4614961663 0.0000077495 -7.6506323570  0 0 0
S 11.0386642441 0.9102745397 -1.5661115884 
S 9.4614781974 1.8208603573 4.5060626359 
S 9.4614970401 0.0000068460 -4.5222282367  0 0 0
S 11.0383018373 0.9104834256 1.5661184991 
S 9.4614740945 1.8208584682 7.6408040265 
Mo -3.1538491871 5.4615027486 6.0695603807 
Mo 9.4614928959 3.6417399547 -6.0872367793  0 0 0
Mo 7.8842261606 4.5522084067 -0.0005084301 
S 7.8845775964 2.7313069925 -7.6506323570  0 0 0
S 9.4614679514 3.6420541235 -1.5661108524 
S 7.8801053577 4.5539588132 4.5068472202 
S 7.8845784701 2.7313060890 -4.5222282367  0 0 0
S 9.4614686629 3.6416360376 1.5661178566 
S 7.9062297037 4.5478531751 7.6470687253 
Mo -4.7287521304 8.1950527996 6.0809876503 
Mo 7.8845743259 6.3730391977 -6.0872367793  0 0 0
Mo 6.3074193180 7.2833413802 -0.0009244397 
S 6.3076590264 5.4626062355 -7.6506323570  0 0 0
S 7.8841673446 6.3726282313 -1.5665996372 
S 6.3062042345 7.2826250942 4.5204340530 
S 6.3076599001 5.4626053320 -4.5222282367  0 0 0
S 7.8847260355 6.3735095091 1.5658163350 
S 6.3154048746 7.2879400616 7.6548655243 
Mo -0.0009531597 0.0005355627 6.0695569332 
Mo 6.3076557559 9.1043384407 -6.0872367793  0 0 0
Mo 4.7305886574 10.0144626593 -0.0005094367 
S 4.7307404564 8.1939054785 -7.6506323570  0 0 0
S 6.3070917202 9.1042014135 -1.5666019461 
S 4.7300559222 10.0100020817 4.5068440304 
S 4.7307413301 8.1939045750 -4.5222282367  0 0 0
S 6.3081345651 9.1042453706 1.5658177737 
S 4.7378325847 10.0356764368 7.6470661730 
Pt 3.1537949167 5.4625541713 8.8883906286 
Pd 1.5710000000 2.7140000000 9.3330000000 

