&CONTROL
   calculation      = 'vc-md'
   restart_mode     = 'from_scratch'
   wf_collect       = .true.
   nstep            = 200000
   tstress          = .true.
   tprnfor          = .true.
   dt               = 10.335276365290008
   outdir           = './outdir'
   pseudo_dir       = './pseudo'
/
&SYSTEM
   ecutwfc          = 56.0
   ecutrho          = 539.0
   nosym            = .true.
   occupations      = 'smearing'
   degauss          = 0.01
   smearing         = 'gaussian'
   vdw_corr         = 'dft-d3'
   ntyp             = 7
   nat              = 588
   ibrav            = 0
/
&ELECTRONS
   electron_maxstep = 1000
   conv_thr         = 1e-06
   mixing_beta      = 0.2
   diagonalization  = 'david'
/
&IONS
   ion_dynamics     = 'beeman'
   pot_extrapolation = 'second_order'
   wfc_extrapolation = 'second_order'
   ion_temperature  = 'rescaling'
   tempw            = 400
   tolp             = 100
/
&CELL
   cell_dynamics    = 'w'
   press            = 0
   cell_dofree      = 'all'
/

ATOMIC_SPECIES
Mo 95.95 Mo.pbe-spn-kjpaw_psl.1.0.0.UPF
S 32.06 S.pbe-n-kjpaw_psl.1.0.0.UPF
Cl 35.45 Cl.pbe-n-kjpaw_psl.1.0.0.UPF
Pd 106.42 Pd.pbe-spn-kjpaw_psl.1.0.0.UPF
O 15.999 O.pbe-n-kjpaw_psl.1.0.0.UPF
H 1.008 H.pbe-kjpaw_psl.1.0.0.UPF
C 12.011 C.pbe-n-kjpaw_psl.1.0.0.UPF

K_POINTS automatic
4 4 1  0 0 0

CELL_PARAMETERS angstrom
19.15344000000000 0.00000000000000 0.00000000000000
0.00000000000000 22.11648748000000 0.00000000000000
0.00000000000000 0.00000000000000 49.81750000000000

ATOMIC_POSITIONS angstrom
Mo 3.1922240000 1.8430500000 28.2534970000 
Mo 1.5961040000 4.6076110000 28.2534970000 
Mo 1.5961360000 0.9215110000 21.5640030000 
Mo 0.0000160000 3.6860720000 21.5640030000 
S 3.1922240000 1.8430500000 23.1282730000 
S 1.5961040000 4.6076110000 23.1282730000 
S 1.5961360000 0.9215110000 26.6892270000 
S 0.0000160000 3.6860720000 26.6892270000 
S 3.1922240000 1.8430500000 20.0002320000 
S 1.5961040000 4.6076110000 20.0002320000 
S 1.5961360000 0.9215110000 29.8172680000 
S 0.0000160000 3.6860720000 29.8172680000 
Mo 3.1922240000 7.3721720000 28.2534970000 
Mo 1.5961040000 10.1367330000 28.2534970000 
Mo 1.5961360000 6.4506330000 21.5640030000 
Mo 0.0000160000 9.2151940000 21.5640030000 
S 3.1922240000 7.3721720000 23.1282730000 
S 1.5961040000 10.1367330000 23.1282730000 
S 1.5961360000 6.4506330000 26.6892270000 
S 0.0000160000 9.2151940000 26.6892270000 
S 3.1922240000 7.3721720000 20.0002320000 
S 1.5961040000 10.1367330000 20.0002320000 
S 1.5961360000 6.4506330000 29.8172680000 
S 0.0000160000 9.2151940000 29.8172680000 
Mo 3.1922240000 12.9012940000 28.2534970000 
Mo 1.5961040000 15.6658550000 28.2534970000 
Mo 1.5961360000 11.9797550000 21.5640030000 
Mo 0.0000160000 14.7443160000 21.5640030000 
S 3.1922240000 12.9012940000 23.1282730000 
S 1.5961040000 15.6658550000 23.1282730000 
S 1.5961360000 11.9797550000 26.6892270000 
S 0.0000160000 14.7443160000 26.6892270000 
S 3.1922240000 12.9012940000 20.0002320000 
S 1.5961040000 15.6658550000 20.0002320000 
S 1.5961360000 11.9797550000 29.8172680000 
S 0.0000160000 14.7443160000 29.8172680000 
Mo 3.1922240000 18.4304150000 28.2534970000 
Mo 1.5961040000 21.1949760000 28.2534970000 
Mo 1.5961360000 17.5088770000 21.5640030000 
Mo 0.0000160000 20.2734380000 21.5640030000 
S 3.1922240000 18.4304150000 23.1282730000 
S 1.5961040000 21.1949760000 23.1282730000 
S 1.5961360000 17.5088770000 26.6892270000 
S 0.0000160000 20.2734380000 26.6892270000 
S 3.1922240000 18.4304150000 20.0002320000 
S 1.5961040000 21.1949760000 20.0002320000 
S 1.5961360000 17.5088770000 29.8172680000 
S 0.0000160000 20.2734380000 29.8172680000 
Mo 6.3844640000 1.8430500000 28.2534970000 
Mo 4.7883440000 4.6076110000 28.2534970000 
Mo 4.7883760000 0.9215110000 21.5640030000 
Mo 3.1922560000 3.6860720000 21.5640030000 
S 6.3844640000 1.8430500000 23.1282730000 
S 4.7883440000 4.6076110000 23.1282730000 
S 4.7883760000 0.9215110000 26.6892270000 
S 3.1922560000 3.6860720000 26.6892270000 
S 6.3844640000 1.8430500000 20.0002320000 
S 4.7883440000 4.6076110000 20.0002320000 
S 4.7883760000 0.9215110000 29.8172680000 
S 3.1922560000 3.6860720000 29.8172680000 
Mo 6.3844640000 7.3721720000 28.2534970000 
Mo 4.7883440000 10.1367330000 28.2534970000 
Mo 4.7883760000 6.4506330000 21.5640030000 
Mo 3.1922560000 9.2151940000 21.5640030000 
S 6.3844640000 7.3721720000 23.1282730000 
S 4.7883440000 10.1367330000 23.1282730000 
S 4.7883760000 6.4506330000 26.6892270000 
S 3.1922560000 9.2151940000 26.6892270000 
S 6.3844640000 7.3721720000 20.0002320000 
S 4.7883440000 10.1367330000 20.0002320000 
S 4.7883760000 6.4506330000 29.8172680000 
S 3.1922560000 9.2151940000 29.8172680000 
Mo 6.3844640000 12.9012940000 28.2534970000 
Mo 4.7883440000 15.6658550000 28.2534970000 
Mo 4.7883760000 11.9797550000 21.5640030000 
Mo 3.1922560000 14.7443160000 21.5640030000 
S 6.3844640000 12.9012940000 23.1282730000 
S 4.7883440000 15.6658550000 23.1282730000 
S 4.7883760000 11.9797550000 26.6892270000 
S 3.1922560000 14.7443160000 26.6892270000 
S 6.3844640000 12.9012940000 20.0002320000 
S 4.7883440000 15.6658550000 20.0002320000 
S 4.7883760000 11.9797550000 29.8172680000 
S 3.1922560000 14.7443160000 29.8172680000 
Mo 6.3844640000 18.4304150000 28.2534970000 
Mo 4.7883440000 21.1949760000 28.2534970000 
Mo 4.7883760000 17.5088770000 21.5640030000 
Mo 3.1922560000 20.2734380000 21.5640030000 
S 6.3844640000 18.4304150000 23.1282730000 
S 4.7883440000 21.1949760000 23.1282730000 
S 4.7883760000 17.5088770000 26.6892270000 
S 3.1922560000 20.2734380000 26.6892270000 
S 6.3844640000 18.4304150000 20.0002320000 
S 4.7883440000 21.1949760000 20.0002320000 
S 4.7883760000 17.5088770000 29.8172680000 
S 3.1922560000 20.2734380000 29.8172680000 
Mo 9.5767040000 1.8430500000 28.2534970000 
Mo 7.9805840000 4.6076110000 28.2534970000 
Mo 7.9806160000 0.9215110000 21.5640030000 
Mo 6.3844960000 3.6860720000 21.5640030000 
S 9.5767040000 1.8430500000 23.1282730000 
S 7.9805840000 4.6076110000 23.1282730000 
S 7.9806160000 0.9215110000 26.6892270000 
S 6.3844960000 3.6860720000 26.6892270000 
S 9.5767040000 1.8430500000 20.0002320000 
S 7.9805840000 4.6076110000 20.0002320000 
S 7.9806160000 0.9215110000 29.8172680000 
S 6.3844960000 3.6860720000 29.8172680000 
Mo 9.5767040000 7.3721720000 28.2534970000 
Mo 7.9805840000 10.1367330000 28.2534970000 
Mo 7.9806160000 6.4506330000 21.5640030000 
Mo 6.3844960000 9.2151940000 21.5640030000 
S 9.5767040000 7.3721720000 23.1282730000 
S 7.9805840000 10.1367330000 23.1282730000 
S 7.9806160000 6.4506330000 26.6892270000 
S 6.3844960000 9.2151940000 26.6892270000 
S 9.5767040000 7.3721720000 20.0002320000 
S 7.9805840000 10.1367330000 20.0002320000 
S 7.9806160000 6.4506330000 29.8172680000 
S 6.3844960000 9.2151940000 29.8172680000 
Mo 9.5767040000 12.9012940000 28.2534970000 
Mo 7.9805840000 15.6658550000 28.2534970000 
Mo 7.9806160000 11.9797550000 21.5640030000 
Mo 6.3844960000 14.7443160000 21.5640030000 
S 9.5767040000 12.9012940000 23.1282730000 
S 7.9805840000 15.6658550000 23.1282730000 
S 7.9806160000 11.9797550000 26.6892270000 
S 6.3844960000 14.7443160000 26.6892270000 
S 9.5767040000 12.9012940000 20.0002320000 
S 7.9805840000 15.6658550000 20.0002320000 
S 7.9806160000 11.9797550000 29.8172680000 
S 6.3844960000 14.7443160000 29.8172680000 
Mo 9.5767040000 18.4304150000 28.2534970000 
Mo 7.9805840000 21.1949760000 28.2534970000 
Mo 7.9806160000 17.5088770000 21.5640030000 
Mo 6.3844960000 20.2734380000 21.5640030000 
S 9.5767040000 18.4304150000 23.1282730000 
S 7.9805840000 21.1949760000 23.1282730000 
S 7.9806160000 17.5088770000 26.6892270000 
S 6.3844960000 20.2734380000 26.6892270000 
S 9.5767040000 18.4304150000 20.0002320000 
S 7.9805840000 21.1949760000 20.0002320000 
S 7.9806160000 17.5088770000 29.8172680000 
S 6.3844960000 20.2734380000 29.8172680000 
Mo 12.7689440000 1.8430500000 28.2534970000 
Mo 11.1728240000 4.6076110000 28.2534970000 
Mo 11.1728560000 0.9215110000 21.5640030000 
Mo 9.5767360000 3.6860720000 21.5640030000 
S 12.7689440000 1.8430500000 23.1282730000 
S 11.1728240000 4.6076110000 23.1282730000 
S 11.1728560000 0.9215110000 26.6892270000 
S 9.5767360000 3.6860720000 26.6892270000 
S 12.7689440000 1.8430500000 20.0002320000 
S 11.1728240000 4.6076110000 20.0002320000 
S 11.1728560000 0.9215110000 29.8172680000 
S 9.5767360000 3.6860720000 29.8172680000 
Mo 12.7689440000 7.3721720000 28.2534970000 
Mo 11.1728240000 10.1367330000 28.2534970000 
Mo 11.1728560000 6.4506330000 21.5640030000 
Mo 9.5767360000 9.2151940000 21.5640030000 
S 12.7689440000 7.3721720000 23.1282730000 
S 11.1728240000 10.1367330000 23.1282730000 
S 11.1728560000 6.4506330000 26.6892270000 
S 9.5767360000 9.2151940000 26.6892270000 
S 12.7689440000 7.3721720000 20.0002320000 
S 11.1728240000 10.1367330000 20.0002320000 
S 11.1728560000 6.4506330000 29.8172680000 
S 9.5767360000 9.2151940000 29.8172680000 
Mo 12.7689440000 12.9012940000 28.2534970000 
Mo 11.1728240000 15.6658550000 28.2534970000 
Mo 11.1728560000 11.9797550000 21.5640030000 
Mo 9.5767360000 14.7443160000 21.5640030000 
S 12.7689440000 12.9012940000 23.1282730000 
S 11.1728240000 15.6658550000 23.1282730000 
S 11.1728560000 11.9797550000 26.6892270000 
S 9.5767360000 14.7443160000 26.6892270000 
S 12.7689440000 12.9012940000 20.0002320000 
S 11.1728240000 15.6658550000 20.0002320000 
S 11.1728560000 11.9797550000 29.8172680000 
S 9.5767360000 14.7443160000 29.8172680000 
Mo 12.7689440000 18.4304150000 28.2534970000 
Mo 11.1728240000 21.1949760000 28.2534970000 
Mo 11.1728560000 17.5088770000 21.5640030000 
Mo 9.5767360000 20.2734380000 21.5640030000 
S 12.7689440000 18.4304150000 23.1282730000 
S 11.1728240000 21.1949760000 23.1282730000 
S 11.1728560000 17.5088770000 26.6892270000 
S 9.5767360000 20.2734380000 26.6892270000 
S 12.7689440000 18.4304150000 20.0002320000 
S 11.1728240000 21.1949760000 20.0002320000 
S 11.1728560000 17.5088770000 29.8172680000 
S 9.5767360000 20.2734380000 29.8172680000 
Mo 15.9611840000 1.8430500000 28.2534970000 
Mo 14.3650640000 4.6076110000 28.2534970000 
Mo 14.3650960000 0.9215110000 21.5640030000 
Mo 12.7689760000 3.6860720000 21.5640030000 
S 15.9611840000 1.8430500000 23.1282730000 
S 14.3650640000 4.6076110000 23.1282730000 
S 14.3650960000 0.9215110000 26.6892270000 
S 12.7689760000 3.6860720000 26.6892270000 
S 15.9611840000 1.8430500000 20.0002320000 
S 14.3650640000 4.6076110000 20.0002320000 
S 14.3650960000 0.9215110000 29.8172680000 
S 12.7689760000 3.6860720000 29.8172680000 
Mo 15.9611840000 7.3721720000 28.2534970000 
Mo 14.3650640000 10.1367330000 28.2534970000 
Mo 14.3650960000 6.4506330000 21.5640030000 
Mo 12.7689760000 9.2151940000 21.5640030000 
S 15.9611840000 7.3721720000 23.1282730000 
S 14.3650640000 10.1367330000 23.1282730000 
S 14.3650960000 6.4506330000 26.6892270000 
S 12.7689760000 9.2151940000 26.6892270000 
S 15.9611840000 7.3721720000 20.0002320000 
S 14.3650640000 10.1367330000 20.0002320000 
S 14.3650960000 6.4506330000 29.8172680000 
S 12.7689760000 9.2151940000 29.8172680000 
Mo 15.9611840000 12.9012940000 28.2534970000 
Mo 14.3650640000 15.6658550000 28.2534970000 
Mo 14.3650960000 11.9797550000 21.5640030000 
Mo 12.7689760000 14.7443160000 21.5640030000 
S 15.9611840000 12.9012940000 23.1282730000 
S 14.3650640000 15.6658550000 23.1282730000 
S 14.3650960000 11.9797550000 26.6892270000 
S 12.7689760000 14.7443160000 26.6892270000 
S 15.9611840000 12.9012940000 20.0002320000 
S 14.3650640000 15.6658550000 20.0002320000 
S 14.3650960000 11.9797550000 29.8172680000 
S 12.7689760000 14.7443160000 29.8172680000 
Mo 15.9611840000 18.4304150000 28.2534970000 
Mo 14.3650640000 21.1949760000 28.2534970000 
Mo 14.3650960000 17.5088770000 21.5640030000 
Mo 12.7689760000 20.2734380000 21.5640030000 
S 15.9611840000 18.4304150000 23.1282730000 
S 14.3650640000 21.1949760000 23.1282730000 
S 14.3650960000 17.5088770000 26.6892270000 
S 12.7689760000 20.2734380000 26.6892270000 
S 15.9611840000 18.4304150000 20.0002320000 
S 14.3650640000 21.1949760000 20.0002320000 
S 14.3650960000 17.5088770000 29.8172680000 
S 12.7689760000 20.2734380000 29.8172680000 
Mo -0.0000160000 1.8430500000 28.2534970000 
Mo 17.5573040000 4.6076110000 28.2534970000 
Mo 17.5573360000 0.9215110000 21.5640030000 
Mo 15.9612160000 3.6860720000 21.5640030000 
S -0.0000160000 1.8430500000 23.1282730000 
S 17.5573040000 4.6076110000 23.1282730000 
S 17.5573360000 0.9215110000 26.6892270000 
S 15.9612160000 3.6860720000 26.6892270000 
S -0.0000160000 1.8430500000 20.0002320000 
S 17.5573040000 4.6076110000 20.0002320000 
S 17.5573360000 0.9215110000 29.8172680000 
S 15.9612160000 3.6860720000 29.8172680000 
Mo -0.0000160000 7.3721720000 28.2534970000 
Mo 17.5573040000 10.1367330000 28.2534970000 
Mo 17.5573360000 6.4506330000 21.5640030000 
Mo 15.9612160000 9.2151940000 21.5640030000 
S -0.0000160000 7.3721720000 23.1282730000 
S 17.5573040000 10.1367330000 23.1282730000 
S 17.5573360000 6.4506330000 26.6892270000 
S 15.9612160000 9.2151940000 26.6892270000 
S -0.0000160000 7.3721720000 20.0002320000 
S 17.5573040000 10.1367330000 20.0002320000 
S 17.5573360000 6.4506330000 29.8172680000 
S 15.9612160000 9.2151940000 29.8172680000 
Mo -0.0000160000 12.9012940000 28.2534970000 
Mo 17.5573040000 15.6658550000 28.2534970000 
Mo 17.5573360000 11.9797550000 21.5640030000 
Mo 15.9612160000 14.7443160000 21.5640030000 
S -0.0000160000 12.9012940000 23.1282730000 
S 17.5573040000 15.6658550000 23.1282730000 
S 17.5573360000 11.9797550000 26.6892270000 
S 15.9612160000 14.7443160000 26.6892270000 
S -0.0000160000 12.9012940000 20.0002320000 
S 17.5573040000 15.6658550000 20.0002320000 
S 17.5573360000 11.9797550000 29.8172680000 
S 15.9612160000 14.7443160000 29.8172680000 
Mo -0.0000160000 18.4304150000 28.2534970000 
Mo 17.5573040000 21.1949760000 28.2534970000 
Mo 17.5573360000 17.5088770000 21.5640030000 
Mo 15.9612160000 20.2734380000 21.5640030000 
S -0.0000160000 18.4304150000 23.1282730000 
S 17.5573040000 21.1949760000 23.1282730000 
S 17.5573360000 17.5088770000 26.6892270000 
S 15.9612160000 20.2734380000 26.6892270000 
S -0.0000160000 18.4304150000 20.0002320000 
S 17.5573040000 21.1949760000 20.0002320000 
S 17.5573360000 17.5088770000 29.8172680000 
S 15.9612160000 20.2734380000 29.8172680000 
Cl 1.2819300000 7.2139160000 44.1433780000 
Pd 0.5032800000 8.3843340000 42.4008670000 
Cl 1.1766900000 10.1872260000 42.2512820000 
Cl 9.7894770000 2.5639740000 44.4975040000 
Pd 8.6111260000 4.0601900000 43.3204980000 
Cl 7.9869160000 5.5890340000 44.3201350000 
Cl 12.5692070000 6.2069420000 35.5467440000 
Pd 13.6706430000 7.8438930000 36.6049260000 
Cl 12.7074640000 8.6852680000 38.0508340000 
Cl 7.3583800000 14.7174320000 41.6601740000 
Pd 9.5300350000 14.2161680000 41.8727090000 
Cl 10.6798680000 15.7020070000 42.3159230000 
Cl 13.6223100000 6.9759350000 46.6309400000 
Pd 12.2407510000 6.5920860000 48.3503800000 
Cl 10.8778060000 5.2626110000 48.0323320000 
Cl 3.0380250000 17.6446980000 37.8245430000 
Pd 2.6397420000 19.7871720000 37.3110340000 
Cl 3.9620200000 21.0453950000 37.9393110000 
Cl 12.6635180000 2.2294700000 41.6040870000 
Pd 14.2721840000 2.6636370000 43.0994840000 
Cl 15.9193840000 3.3497170000 42.3630730000 
Cl 12.9290930000 14.6856720000 43.3829800000 
Pd 13.2258420000 16.0264940000 45.1512150000 
Cl 11.8246360000 15.9646210000 46.4775140000 
Cl 18.6313230000 12.2069890000 39.0272730000 
Pd 17.6813080000 13.7315540000 40.3635720000 
Cl 18.6432750000 14.1140220000 41.9928700000 
Cl 1.7169040000 16.6618430000 42.9603070000 
Pd 2.2690080000 14.6128120000 43.6738710000 
Cl 4.0064210000 13.9848780000 43.1140780000 
O 9.2698490000 18.2949460000 47.8561430000 
H 9.8645590000 18.3001670000 48.6211610000 
H 8.8812820000 19.1826260000 47.8556790000 
O 11.1956260000 14.2757120000 34.4172870000 
H 12.0206330000 14.1603740000 34.9122840000 
H 11.2632510000 13.6317960000 33.6963430000 
O 12.0622650000 17.8635350000 42.3648880000 
H 12.4822720000 18.7361430000 42.3315750000 
H 11.5493520000 17.8818720000 43.1868030000 
O 8.3625880000 6.4174830000 49.0517560000 
H 7.8822540000 7.2201930000 49.3045360000 
H 7.6636340000 5.7618490000 48.9083410000 
O 9.4476070000 3.1000500000 37.6014520000 
H 9.3584440000 3.2330470000 36.6457730000 
H 8.8584550000 3.7661170000 37.9864360000 
O 15.8729950000 4.3079920000 35.9999620000 
H 16.5222420000 3.6422910000 36.2725070000 
H 15.2876500000 3.8296260000 35.3937470000 
O 7.9814330000 16.1050100000 49.2183620000 
H 8.1750220000 17.0493280000 49.3170930000 
H 8.5838890000 15.8146370000 48.5171560000 
O 9.6662730000 3.1192540000 40.6080120000 
H 9.9437860000 3.9800810000 40.2602710000 
H 8.8613870000 2.9137320000 40.1091350000 
O 15.9355810000 3.8622130000 39.4487590000 
H 15.9265590000 3.0789570000 40.0191880000 
H 15.0819450000 4.2871360000 39.6211130000 
O 16.3152490000 15.7912660000 41.5788750000 
H 16.0875540000 15.0201700000 42.1197340000 
H 16.5285470000 16.4779950000 42.2283880000 
C 14.5907860000 7.2896090000 41.5404940000 
C 14.0773290000 6.8296350000 42.8891270000 
O 15.1684690000 6.5453570000 43.7525530000 
H 15.2356970000 6.5262380000 41.0929860000 
H 15.1960320000 8.1960510000 41.6453930000 
H 13.7620430000 7.4969870000 40.8578140000 
H 13.4812370000 5.9187960000 42.7814620000 
H 13.4524240000 7.5980940000 43.3541550000 
H 15.6862390000 7.3627400000 43.8495200000 
C 9.5573260000 20.6285410000 38.0092500000 
C 10.8572770000 19.9169440000 38.3219490000 
O 11.6472800000 20.7109780000 39.1950530000 
H 9.7525170000 21.6058720000 37.5557800000 
H 8.9859100000 20.8110480000 38.9252950000 
H 8.9439760000 20.0368420000 37.3240020000 
H 11.4295470000 19.7449270000 37.4057280000 
H 10.6706040000 18.9500210000 38.7989190000 
H 11.1344010000 20.8500910000 40.0094280000 
C 16.6845780000 20.5305530000 43.0148260000 
C 17.1950180000 19.9208490000 41.7257420000 
O 16.1393450000 19.8311710000 40.7800060000 
H 15.8625070000 19.9341870000 43.4240430000 
H 16.2905170000 21.5366840000 42.8376860000 
H 17.4825160000 20.5914070000 43.7601190000 
H 17.5790240000 18.9124030000 41.9049660000 
H 18.0000000000 20.5255750000 41.2972590000 
H 15.8115000000 20.7326190000 40.6202760000 
C 13.9469760000 12.9869570000 37.0025340000 
C 14.5365310000 11.8745010000 36.1605780000 
O 15.8775420000 12.1874320000 35.8132030000 
H 13.9834900000 13.9391100000 36.4631060000 
H 14.5223400000 13.1211070000 37.9244470000 
H 12.9080240000 12.7686800000 37.2648440000 
H 13.9649290000 11.7498930000 35.2363010000 
H 14.5268430000 10.9243150000 36.7031080000 
H 16.3791170000 12.2866100000 36.6403610000 
C 4.9620430000 11.0687550000 34.3573600000 
C 4.9372170000 10.7908870000 32.8686700000 
O 4.9229410000 9.3898500000 32.6367250000 
H 5.8365690000 10.6015640000 34.8219520000 
H 4.0779930000 10.6449370000 34.8450040000 
H 4.9899750000 12.1443410000 34.5528230000 
H 5.8264110000 11.2074120000 32.3866060000 
H 4.0521610000 11.2332690000 32.4014850000 
H 4.1247290000 9.0306980000 33.0603660000 
C 6.7727300000 14.0486890000 37.4152760000 
C 7.3265280000 12.6541050000 37.2091990000 
O 8.5455470000 12.7184290000 36.4834170000 
H 6.6118160000 14.5454300000 36.4528490000 
H 7.4799360000 14.6667120000 37.9781880000 
H 5.8244820000 14.0152550000 37.9589480000 
H 6.6215560000 12.0427250000 36.6384340000 
H 7.5140240000 12.1606130000 38.1676340000 
H 9.1680320000 13.2553150000 37.0029060000 
C 8.7858480000 20.2521600000 41.6712730000 
C 8.1915220000 19.9700790000 43.0355420000 
O 8.4598780000 18.6277100000 43.4136100000 
H 8.3797510000 19.5624910000 40.9240430000 
H 9.8708280000 20.1051100000 41.6838170000 
H 8.5734660000 21.2781410000 41.3580180000 
H 7.1066460000 20.1087590000 43.0166160000 
H 8.6117870000 20.6389260000 43.7927130000 
H 9.4257210000 18.5172210000 43.4369210000 
C 3.1995010000 9.7635280000 48.2212670000 
C 4.5938470000 10.3440120000 48.1078690000 
O 5.5617670000 9.3250620000 48.3122640000 
H 3.0545080000 9.2980950000 49.2017060000 
H 3.0438140000 8.9810700000 47.4712780000 
H 2.4416130000 10.5395740000 48.0825970000 
H 4.7488210000 11.1184720000 48.8646650000 
H 4.7549080000 10.7885890000 47.1211080000 
H 5.4220750000 8.6468400000 47.6295450000 
C 6.0569980000 7.1064610000 37.2752270000 
C 6.1854850000 7.1286130000 35.7662460000 
O 7.5543220000 7.0568990000 35.3946950000 
H 6.6120170000 7.9382040000 37.7213980000 
H 6.4806290000 6.1842070000 37.6862590000 
H 5.0087170000 7.1777520000 37.5783710000 
H 5.7699170000 8.0554270000 35.3602140000 
H 5.6543260000 6.2852820000 35.3146370000 
H 7.9118120000 6.2259880000 35.7516140000 
C 9.7181710000 16.2543000000 36.2429590000 
C 10.9214580000 15.9256800000 37.1021060000 
O 10.5629770000 15.9675930000 38.4756560000 
H 9.3208430000 17.2421950000 36.4981140000 
H 8.9120970000 15.5331580000 36.4137310000 
H 9.9818650000 16.2424390000 35.1817350000 
H 11.7208490000 16.6536010000 36.9358270000 
H 11.3087240000 14.9288610000 36.8704510000 
H 9.8593550000 15.3110400000 38.6151510000 
Cl 9.2520650000 16.4614480000 11.7196860000 
Pd 7.5142120000 15.0676180000 11.4969220000 
Cl 5.8233460000 15.9133880000 11.1071510000 
Cl 13.8179620000 1.4320530000 1.8884080000 
Pd 14.1609750000 0.6225740000 3.9474380000 
Cl 12.6288720000 0.6761690000 5.1204940000 
Cl 3.8699420000 18.0669440000 4.5339640000 
Pd 5.8423010000 17.9736660000 5.5892450000 
Cl 6.2243490000 19.4628770000 6.7565340000 
Cl 7.5068880000 9.1916810000 1.5767670000 
Pd 5.6128050000 10.1980520000 2.2187850000 
Cl 5.0663680000 9.8449350000 4.0361980000 
Cl 10.5720890000 20.4702540000 5.0444200000 
Pd 11.6419890000 18.5152240000 4.8306680000 
Cl 12.3445500000 17.7760490000 6.4696620000 
Cl 2.2046550000 21.4911950000 10.5504720000 
Pd 1.6385810000 19.4665720000 11.3205270000 
Cl 2.8745580000 18.6892730000 12.5832390000 
Cl 5.4498750000 11.5476570000 7.3830620000 
Pd 7.1728990000 10.1191740000 7.3269870000 
Cl 7.2931730000 9.0341520000 5.7349640000 
Cl 11.6920780000 0.5177330000 13.4112570000 
Pd 10.7253340000 1.6884310000 11.7658420000 
Cl 11.8988650000 2.2082080000 10.3239920000 
Cl 13.4410370000 12.4542370000 14.4545540000 
Pd 13.5690400000 13.9481990000 12.7919620000 
Cl 14.7258230000 13.4551240000 11.3273780000 
Cl 12.4842020000 4.1153160000 2.4602060000 
Pd 13.6142520000 3.3883590000 4.2510270000 
Cl 15.4859870000 3.8586920000 4.2919010000 
O 8.9399730000 15.7184580000 9.5456610000 
H 8.8189000000 14.7578880000 9.5857370000 
H 8.4866510000 15.9776570000 8.7294040000 
O 9.0674390000 16.3424300000 1.3189040000 
H 8.4501960000 17.0810550000 1.4302850000 
H 8.4933790000 15.5635370000 1.2665600000 
O 18.5557230000 18.9415880000 0.5553970000 
H 18.4343520000 17.9802210000 0.5535250000 
H 17.6525210000 19.2914830000 0.5829550000 
O 4.1667090000 4.9780100000 6.9900040000 
H 4.9561710000 4.4161280000 6.9898510000 
H 3.4307840000 4.3476660000 6.9836390000 
O 3.6729420000 3.4464730000 10.1961010000 
H 2.7156960000 3.3822790000 10.0600090000 
H 3.9700220000 2.5242150000 10.2080760000 
O 7.6142830000 11.5363300000 12.5002970000 
H 8.0372380000 12.3692090000 12.2426500000 
H 6.7032190000 11.6286550000 12.1834410000 
O 16.9107530000 10.2019350000 8.8078550000 
H 17.8592470000 10.1244550000 8.6253310000 
H 16.7763150000 9.6440580000 9.5886620000 
O 11.3463670000 7.2476360000 4.4301550000 
H 11.7797650000 6.5029200000 4.8734670000 
H 10.4028360000 7.0325590000 4.4796660000 
O 12.0531340000 21.3122080000 6.7330800000 
H 12.5719030000 20.9328300000 7.4582780000 
H 12.5872890000 21.1333180000 5.9446400000 
O 14.4635780000 9.9996350000 9.5442880000 
H 13.6730940000 10.5233320000 9.7438800000 
H 14.7136600000 10.2839720000 8.6523400000 
C 10.2081260000 11.6412460000 2.2082070000 
C 10.2635200000 10.1346290000 2.0630880000 
O 11.5827280000 9.6713400000 2.3120070000 
H 10.9114880000 12.1207500000 1.5195350000 
H 10.4972780000 11.9435160000 3.2201300000 
H 9.2014150000 12.0159440000 2.0032530000 
H 9.9832990000 9.8372050000 1.0484160000 
H 9.5815360000 9.6471940000 2.7663610000 
H 11.8187400000 9.9318960000 3.2186560000 
C 17.2996600000 6.3701400000 13.3506320000 
C 15.9260510000 6.5670930000 12.7436460000 
O 16.0448060000 6.8596930000 11.3590210000 
H 17.9162860000 7.2633790000 13.2063920000 
H 17.8225670000 5.5403330000 12.8638550000 
H 17.2263400000 6.1600950000 14.4213220000 
H 15.4106410000 7.4027480000 13.2259100000 
H 15.3123760000 5.6688630000 12.8614380000 
H 16.4950530000 6.1075970000 10.9380310000 
C 16.3114330000 16.4649030000 2.8739440000 
C 16.3116570000 15.8709290000 1.4806680000 
O 15.6338640000 16.7382500000 0.5833080000 
H 15.2867090000 16.6372690000 3.2191130000 
H 16.8172420000 17.4360230000 2.8807850000 
H 16.8158070000 15.8005310000 3.5811140000 
H 15.7972930000 14.9055520000 1.4759770000 
H 17.3330840000 15.7195090000 1.1186630000 
H 16.1037910000 17.5895760000 0.5872520000 
C 17.2356180000 5.8036430000 2.7862790000 
C 17.5718920000 6.4131060000 1.4411030000 
O 18.2926430000 5.4783370000 0.6513990000 
H 18.1473280000 5.4943780000 3.3078650000 
H 16.6202100000 4.9065690000 2.6618030000 
H 16.6942310000 6.5174600000 3.4133640000 
H 18.1945120000 7.3033420000 1.5690460000 
H 16.6639460000 6.7014230000 0.9027780000 
H 17.7277080000 4.6954010000 0.5353650000 
C 11.4357100000 13.0978270000 6.5300250000 
C 11.1806860000 11.9272270000 7.4566760000 
O 11.5465980000 12.2712410000 8.7850840000 
H 12.4890580000 13.3946910000 6.5652170000 
H 10.8488200000 13.9696860000 6.8372480000 
H 11.1742500000 12.8432330000 5.4991550000 
H 11.7757680000 11.0613250000 7.1523160000 
H 10.1246030000 11.6411050000 7.4461870000 
H 11.0059530000 13.0350020000 9.0496140000 
C 15.3321910000 14.6273890000 6.8462410000 
C 16.5765680000 13.8781250000 7.2753700000 
O 16.8060330000 14.0732040000 8.6632450000 
H 15.4312090000 15.6957470000 7.0646840000 
H 14.4558780000 14.2697690000 7.3968280000 
H 15.1506420000 14.5006940000 5.7753250000 
H 17.4512120000 14.2446210000 6.7301880000 
H 16.4747640000 12.8056850000 7.0835480000 
H 16.0280710000 13.7358700000 9.1392540000 
C 15.9524790000 15.6291770000 16.0896700000 
C 16.4099720000 14.2110470000 16.3610210000 
O 17.6199420000 13.9499190000 15.6648240000 
H 15.8107880000 15.7894690000 15.0158260000 
H 16.7070150000 16.3496170000 16.4222460000 
H 15.0120640000 15.8410250000 16.6060130000 
H 15.6579910000 13.4941150000 16.0188550000 
H 16.5783410000 14.0507100000 17.4302410000 
H 18.2839650000 14.5853060000 15.9825670000 
C 8.7978050000 3.2068820000 15.4398850000 
C 9.1260360000 2.5433740000 14.1185050000 
O 8.1214470000 1.5951900000 13.7888780000 
H 8.7105500000 2.4593470000 16.2351760000 
H 7.8352810000 3.7258910000 15.3838390000 
H 9.5712270000 3.9288440000 15.7164010000 
H 10.0834670000 2.0180850000 14.1812890000 
H 9.1896760000 3.2818310000 13.3135700000 
H 7.2767920000 2.0728960000 13.7259540000 
C 8.0587820000 7.5687730000 13.9213140000 
C 8.1457590000 6.1019190000 14.2884630000 
O 9.3891340000 5.5670080000 13.8585840000 
H 8.1725220000 7.7028180000 12.8405710000 
H 8.8645920000 8.1357660000 14.3989670000 
H 7.0992380000 7.9920260000 14.2311590000 
H 7.3450540000 5.5373760000 13.8019370000 
H 8.0584710000 5.9621800000 15.3701940000 
H 10.0935290000 6.0685280000 14.3034530000 
C 4.1374150000 13.3669900000 4.1777420000 
C 2.8574600000 14.1101990000 4.4992700000 
O 1.7417780000 13.2456330000 4.3421570000 
H 4.1078590000 12.9726760000 3.1566870000 
H 4.2655480000 12.5095280000 4.8465480000 
H 5.0056400000 14.0242510000 4.2780670000 
H 2.7281760000 14.9602530000 3.8230760000 
H 2.8690240000 14.4854350000 5.5270600000 
H 1.8611120000 12.4989850000 4.9536150000 

