&CONTROL
   calculation      = 'relax'
   restart_mode     = 'from_scratch'
   wf_collect       = .true.
   nstep            = 1000
   tstress          = .false.
   tprnfor          = .true.
   outdir           = './outdir'
   pseudo_dir       = './pseudo'
/
&SYSTEM
   ecutwfc          = 77.0
   ecutrho          = 539.0
   nosym            = .false.
   occupations      = 'smearing'
   degauss          = 0.01
   smearing         = 'gaussian'
   assume_isolated  = 'esm'
   esm_bc           = 'bc1'
   vdw_corr         = 'dft-d3'
   dftd3_version    = 4
   ntyp             = 2
   nat              = 192
   ibrav            = 0
/
&ELECTRONS
   electron_maxstep = 1000
   conv_thr         = 1e-06
   mixing_beta      = 0.2
   diagonalization  = 'david'
/
&IONS
/
&CELL
/

ATOMIC_SPECIES
Mo 95.95 Mo.pbe-spn-kjpaw_psl.1.0.0.UPF
S 32.06 S.pbe-n-kjpaw_psl.1.0.0.UPF

K_POINTS automatic
4 4 1  0 0 0

CELL_PARAMETERS angstrom
12.60495905200997 0.00000000000000 0.00000000000000
-6.30246936962732 10.91622207999651 0.00000000000000
0.00000000000000 0.00000000000000 36.46615155790357

ATOMIC_POSITIONS angstrom
Mo 0.0000119917 1.8193638619 -9.1672481230  0 0 0
Mo 1.5756394201 0.9096977233 -3.0554758765 
S 0.0000195927 1.8193829639 -4.6213195440 
S 1.5756321638 0.9096773839 -7.6014065489  0 0 0
S 1.5756326175 0.9096785128 -10.7330757790  0 0 0
S 0.0000198732 1.8193847707 -1.4896481040 
Mo 0.0000414581 1.8193700805 3.0554757600 
Mo 1.5756688865 0.9097039420 9.1672480065 
S 0.0000490591 1.8193891825 7.6014043390 
S 1.5756616302 0.9096836025 4.6213173340 
S 1.5756620839 0.9096847314 1.4896481040 
S 0.0000493396 1.8193909894 10.7330757790 
Mo -1.5756053507 4.5484193819 -9.1672481230  0 0 0
Mo 0.0000220777 3.6387532433 -3.0554758765 
S -1.5755977497 4.5484384839 -4.6213195440 
S 0.0000148214 3.6387329039 -7.6014065489  0 0 0
S 0.0000152751 3.6387340328 -10.7330757790  0 0 0
S -1.5755974692 4.5484402907 -1.4896481040 
Mo -1.5755758843 4.5484256005 3.0554757600 
Mo 0.0000515441 3.6387594620 9.1672480065 
S -1.5755682833 4.5484447025 7.6014043390 
S 0.0000442878 3.6387391225 4.6213173340 
S 0.0000447415 3.6387402514 1.4896481040 
S -1.5755680028 4.5484465094 10.7330757790 
Mo -3.1512226931 7.2774749019 -9.1672481230  0 0 0
Mo -1.5755952647 6.3678087633 -3.0554758765 
S -3.1512150921 7.2774940039 -4.6213195440 
S -1.5756025210 6.3677884239 -7.6014065489  0 0 0
S -1.5756020673 6.3677895528 -10.7330757790  0 0 0
S -3.1512148116 7.2774958107 -1.4896481040 
Mo -3.1511932267 7.2774811205 3.0554757600 
Mo -1.5755657983 6.3678149820 9.1672480065 
S -3.1511856257 7.2775002225 7.6014043390 
S -1.5755730546 6.3677946425 4.6213173340 
S -1.5755726009 6.3677957714 1.4896481040 
S -3.1511853452 7.2775020294 10.7330757790 
Mo -4.7268400355 10.0065304219 -9.1672481230  0 0 0
Mo -3.1512126071 9.0968642833 -3.0554758765 
S -4.7268324345 10.0065495239 -4.6213195440 
S -3.1512198634 9.0968439439 -7.6014065489  0 0 0
S -3.1512194097 9.0968450728 -10.7330757790  0 0 0
S -4.7268321540 10.0065513307 -1.4896481040 
Mo -4.7268105691 10.0065366405 3.0554757600 
Mo -3.1511831407 9.0968705020 9.1672480065 
S -4.7268029681 10.0065557425 7.6014043390 
S -3.1511903971 9.0968501625 4.6213173340 
S -3.1511899433 9.0968512914 1.4896481040 
S -4.7268026876 10.0065575494 10.7330757790 
Mo 3.1512517547 1.8193638619 -9.1672481230  0 0 0
Mo 4.7268791831 0.9096977233 -3.0554758765 
S 3.1512593557 1.8193829639 -4.6213195440 
S 4.7268719268 0.9096773839 -7.6014065489  0 0 0
S 4.7268723805 0.9096785128 -10.7330757790  0 0 0
S 3.1512596362 1.8193847707 -1.4896481040 
Mo 3.1512812211 1.8193700805 3.0554757600 
Mo 4.7269086495 0.9097039420 9.1672480065 
S 3.1512888221 1.8193891825 7.6014043390 
S 4.7269013932 0.9096836025 4.6213173340 
S 4.7269018469 0.9096847314 1.4896481040 
S 3.1512891026 1.8193909894 10.7330757790 
Mo 1.5756344123 4.5484193819 -9.1672481230  0 0 0
Mo 3.1512618407 3.6387532433 -3.0554758765 
S 1.5756420133 4.5484384839 -4.6213195440 
S 3.1512545844 3.6387329039 -7.6014065489  0 0 0
S 3.1512550381 3.6387340328 -10.7330757790  0 0 0
S 1.5756422938 4.5484402907 -1.4896481040 
Mo 1.5756638787 4.5484256005 3.0554757600 
Mo 3.1512913071 3.6387594620 9.1672480065 
S 1.5756714797 4.5484447025 7.6014043390 
S 3.1512840508 3.6387391225 4.6213173340 
S 3.1512845045 3.6387402514 1.4896481040 
S 1.5756717602 4.5484465094 10.7330757790 
Mo 0.0000170699 7.2774749019 -9.1672481230  0 0 0
Mo 1.5756444983 6.3678087633 -3.0554758765 
S 0.0000246709 7.2774940039 -4.6213195440 
S 1.5756372420 6.3677884239 -7.6014065489  0 0 0
S 1.5756376957 6.3677895528 -10.7330757790  0 0 0
S 0.0000249514 7.2774958107 -1.4896481040 
Mo 0.0000465363 7.2774811205 3.0554757600 
Mo 1.5756739647 6.3678149820 9.1672480065 
S 0.0000541373 7.2775002225 7.6014043390 
S 1.5756667084 6.3677946425 4.6213173340 
S 1.5756671621 6.3677957714 1.4896481040 
S 0.0000544178 7.2775020294 10.7330757790 
Mo -1.5756002725 10.0065304219 -9.1672481230  0 0 0
Mo 0.0000271559 9.0968642833 -3.0554758765 
S -1.5755926715 10.0065495239 -4.6213195440 
S 0.0000198996 9.0968439439 -7.6014065489  0 0 0
S 0.0000203533 9.0968450728 -10.7330757790  0 0 0
S -1.5755923910 10.0065513307 -1.4896481040 
Mo -1.5755708061 10.0065366405 3.0554757600 
Mo 0.0000566223 9.0968705020 9.1672480065 
S -1.5755632051 10.0065557425 7.6014043390 
S 0.0000493659 9.0968501625 4.6213173340 
S 0.0000498197 9.0968512914 1.4896481040 
S -1.5755629246 10.0065575494 10.7330757790 
Mo 6.3024915177 1.8193638619 -9.1672481230  0 0 0
Mo 7.8781189461 0.9096977233 -3.0554758765 
S 6.3024991187 1.8193829639 -4.6213195440 
S 7.8781116898 0.9096773839 -7.6014065489  0 0 0
S 7.8781121435 0.9096785128 -10.7330757790  0 0 0
S 6.3024993992 1.8193847707 -1.4896481040 
Mo 6.3025209841 1.8193700805 3.0554757600 
Mo 7.8781484125 0.9097039420 9.1672480065 
S 6.3025285851 1.8193891825 7.6014043390 
S 7.8781411562 0.9096836025 4.6213173340 
S 7.8781416099 0.9096847314 1.4896481040 
S 6.3025288656 1.8193909894 10.7330757790 
Mo 4.7268741753 4.5484193819 -9.1672481230  0 0 0
Mo 6.3025016037 3.6387532433 -3.0554758765 
S 4.7268817763 4.5484384839 -4.6213195440 
S 6.3024943474 3.6387329039 -7.6014065489  0 0 0
S 6.3024948011 3.6387340328 -10.7330757790  0 0 0
S 4.7268820568 4.5484402907 -1.4896481040 
Mo 4.7269036417 4.5484256005 3.0554757600 
Mo 6.3025310701 3.6387594620 9.1672480065 
S 4.7269112427 4.5484447025 7.6014043390 
S 6.3025238138 3.6387391225 4.6213173340 
S 6.3025242675 3.6387402514 1.4896481040 
S 4.7269115232 4.5484465094 10.7330757790 
Mo 3.1512568329 7.2774749019 -9.1672481230  0 0 0
Mo 4.7268842613 6.3678087633 -3.0554758765 
S 3.1512644339 7.2774940039 -4.6213195440 
S 4.7268770050 6.3677884239 -7.6014065489  0 0 0
S 4.7268774587 6.3677895528 -10.7330757790  0 0 0
S 3.1512647144 7.2774958107 -1.4896481040 
Mo 3.1512862993 7.2774811205 3.0554757600 
Mo 4.7269137277 6.3678149820 9.1672480065 
S 3.1512939003 7.2775002225 7.6014043390 
S 4.7269064714 6.3677946425 4.6213173340 
S 4.7269069251 6.3677957714 1.4896481040 
S 3.1512941808 7.2775020294 10.7330757790 
Mo 1.5756394905 10.0065304219 -9.1672481230  0 0 0
Mo 3.1512669189 9.0968642833 -3.0554758765 
S 1.5756470915 10.0065495239 -4.6213195440 
S 3.1512596626 9.0968439439 -7.6014065489  0 0 0
S 3.1512601163 9.0968450728 -10.7330757790  0 0 0
S 1.5756473720 10.0065513307 -1.4896481040 
Mo 1.5756689569 10.0065366405 3.0554757600 
Mo 3.1512963853 9.0968705020 9.1672480065 
S 1.5756765579 10.0065557425 7.6014043390 
S 3.1512891289 9.0968501625 4.6213173340 
S 3.1512895827 9.0968512914 1.4896481040 
S 1.5756768384 10.0065575494 10.7330757790 
Mo 9.4537312807 1.8193638619 -9.1672481230  0 0 0
Mo 11.0293587091 0.9096977233 -3.0554758765 
S 9.4537388817 1.8193829639 -4.6213195440 
S 11.0293514528 0.9096773839 -7.6014065489  0 0 0
S 11.0293519066 0.9096785128 -10.7330757790  0 0 0
S 9.4537391622 1.8193847707 -1.4896481040 
Mo 9.4537607471 1.8193700805 3.0554757600 
Mo 11.0293881755 0.9097039420 9.1672480065 
S 9.4537683481 1.8193891825 7.6014043390 
S 11.0293809192 0.9096836025 4.6213173340 
S 11.0293813729 0.9096847314 1.4896481040 
S 9.4537686286 1.8193909894 10.7330757790 
Mo 7.8781139383 4.5484193819 -9.1672481230  0 0 0
Mo 9.4537413667 3.6387532433 -3.0554758765 
S 7.8781215393 4.5484384839 -4.6213195440 
S 9.4537341104 3.6387329039 -7.6014065489  0 0 0
S 9.4537345641 3.6387340328 -10.7330757790  0 0 0
S 7.8781218198 4.5484402907 -1.4896481040 
Mo 7.8781434047 4.5484256005 3.0554757600 
Mo 9.4537708331 3.6387594620 9.1672480065 
S 7.8781510057 4.5484447025 7.6014043390 
S 9.4537635768 3.6387391225 4.6213173340 
S 9.4537640305 3.6387402514 1.4896481040 
S 7.8781512862 4.5484465094 10.7330757790 
Mo 6.3024965959 7.2774749019 -9.1672481230  0 0 0
Mo 7.8781240243 6.3678087633 -3.0554758765 
S 6.3025041969 7.2774940039 -4.6213195440 
S 7.8781167680 6.3677884239 -7.6014065489  0 0 0
S 7.8781172217 6.3677895528 -10.7330757790  0 0 0
S 6.3025044774 7.2774958107 -1.4896481040 
Mo 6.3025260623 7.2774811205 3.0554757600 
Mo 7.8781534907 6.3678149820 9.1672480065 
S 6.3025336633 7.2775002225 7.6014043390 
S 7.8781462344 6.3677946425 4.6213173340 
S 7.8781466881 6.3677957714 1.4896481040 
S 6.3025339438 7.2775020294 10.7330757790 
Mo 4.7268792535 10.0065304219 -9.1672481230  0 0 0
Mo 6.3025066819 9.0968642833 -3.0554758765 
S 4.7268868545 10.0065495239 -4.6213195440 
S 6.3024994256 9.0968439439 -7.6014065489  0 0 0
S 6.3024998793 9.0968450728 -10.7330757790  0 0 0
S 4.7268871350 10.0065513307 -1.4896481040 
Mo 4.7269087199 10.0065366405 3.0554757600 
Mo 6.3025361483 9.0968705020 9.1672480065 
S 4.7269163209 10.0065557425 7.6014043390 
S 6.3025288920 9.0968501625 4.6213173340 
S 6.3025293457 9.0968512914 1.4896481040 
S 4.7269166014 10.0065575494 10.7330757790 

