&CONTROL
   calculation      = 'scf'
   restart_mode     = 'from_scratch'
   wf_collect       = .true.
   tstress          = .false.
   tprnfor          = .true.
   outdir           = './outdir'
   pseudo_dir       = './pseudo'
/
&SYSTEM
   ecutwfc          = 77.0
   ecutrho          = 539.0
   nosym            = .true.
   occupations      = 'smearing'
   degauss          = 0.01
   smearing         = 'gaussian'
   assume_isolated  = 'esm'
   esm_bc           = 'bc1'
   vdw_corr         = 'dft-d3'
   dftd3_version    = 4
   ntyp             = 4
   nat              = 146
   ibrav            = 0
/
&ELECTRONS
   electron_maxstep = 1000
   conv_thr         = 1e-06
   mixing_beta      = 0.2
   diagonalization  = 'david'
/
&IONS
/
&CELL
/

ATOMIC_SPECIES
Mo 95.95 Mo.pbe-spn-kjpaw_psl.1.0.0.UPF
S 32.06 S.pbe-n-kjpaw_psl.1.0.0.UPF
Pd 106.42 Pd.pbe-spn-kjpaw_psl.1.0.0.UPF
H 1.008 H.pbe-kjpaw_psl.1.0.0.UPF

K_POINTS automatic
2 2 1  0 0 0

CELL_PARAMETERS angstrom
12.61532217525308 0.00000000000000 0.00000000000000
-6.30767370294872 10.92519700214573 0.00000000000000
0.00000000000000 0.00000000000000 30.30125956094956

ATOMIC_POSITIONS angstrom
Mo 1.5712796312 2.7075235878 6.0879877158 
Mo 1.5769197498 0.9104407117 -6.0872367793 
Mo 0.0001138947 1.8205622934 -0.0004843266 
S 0.0000044503 0.0000077495 -7.6506323570 
S 1.5767686884 0.9109762478 -1.5669480905 
S 0.0024604067 1.8197833636 4.5046706654 
S 0.0000053241 0.0000068460 -4.5222282367 
S 1.5771310187 0.9099709176 1.5659128411 
S -0.0116330760 1.8030567579 7.6498019220 
Mo -0.0139523803 5.4710935176 6.0996584979 
Mo 0.0000011799 3.6417399547 -6.0872367793 
Mo -1.5761795334 4.5530890663 -0.0008624526 
S -1.5769141197 2.7313069925 -7.6506323570 
S 0.0002071962 3.6415660518 -1.5660141957 
S -1.5648403465 4.5537762783 4.5126919500 
S -1.5769132459 2.7313060890 -4.5222282367 
S 0.0010604863 3.6425671450 1.5671436907 
S -1.6034933662 4.5343126980 7.6525276080 
Mo -1.5741634721 8.1922891257 6.0876388037 
Mo -1.5769173901 6.3730391977 -6.0872367793 
Mo -3.1528806411 7.2834439210 -0.0023653647 
S -3.1538326896 5.4626062355 -7.6506323570 
S -1.5756304588 6.3731734028 -1.5677583862 
S -3.1504224643 7.2930165409 4.5130355676 
S -3.1538318159 5.4626053320 -4.5222282367 
S -1.5766941959 6.3738087841 1.5671709684 
S -3.1717744735 7.2805533724 7.6494715546 
Mo 3.1449603260 0.0039666059 6.0789630425 
Mo -3.1538359601 9.1043384407 -6.0872367793 
Mo -4.7312168771 10.0150180456 -0.0018833882 
S -4.7307512596 8.1939054785 -7.6506323570 
S -3.1541134088 9.1044758792 -1.5676603676 
S -4.7310996125 10.0149461057 4.5063038579 
S -4.7307503859 8.1939045750 -4.5222282367 
S -3.1536848492 9.1042288510 1.5645965970 
S -4.7369392648 10.0183152013 7.6469966328 
Mo 4.7373387290 2.7187761481 6.0857350071 
Mo 4.7307503218 0.9104407117 -6.0872367793 
Mo 3.1538183529 1.8211584962 -0.0007935779 
S 3.1538350223 0.0000077495 -7.6506323570 
S 4.7311743283 0.9107635284 -1.5666447135 
S 3.1546225044 1.8226767976 4.5117126223 
S 3.1538358961 0.0000068460 -4.5222282367 
S 4.7304541418 0.9092541466 1.5654995823 
S 3.1565525681 1.8157472188 7.6539159760 
Mo 3.1527710466 5.4631927575 6.1472064660 
Mo 3.1538317519 3.6417399547 -6.0872367793 
Mo 1.5768368949 4.5533424583 -0.0010183792 
S 1.5769164523 2.7313069925 -7.6506323570 
S 3.1537976861 3.6423338536 -1.5664041978 
S 1.5903113578 4.5646236840 4.5655933604 
S 1.5769173261 2.7313060890 -4.5222282367 
S 3.1531998209 3.6422481367 1.5667684444 
S 1.4893878674 4.4794726470 7.7139302066 
Mo 1.5625624886 8.2017082842 6.0996514351 
Mo 1.5769131819 6.3730391977 -6.0872367793 
Mo 0.0001844141 7.2833428216 0.0000032789 
S -0.0000021176 5.4626062355 -7.6506323570 
S 1.5760817514 6.3734978592 -1.5675481572 
S 0.0013996272 7.2826382721 4.5015892617 
S -0.0000012439 5.4626053320 -4.5222282367 
S 1.5764443347 6.3732874492 1.5685290489 
S -0.0072925301 7.2876674556 7.6168615834 
Mo 6.3080742249 -0.0013087780 6.0718331789 
Mo -0.0000053881 9.1043384407 -6.0872367793 
Mo -1.5764388265 10.0139258323 -0.0023657218 
S -1.5769206876 8.1939054785 -7.6506323570 
S 0.0005039816 9.1031246586 -1.5677586023 
S -1.5835058420 10.0070049811 4.5130350839 
S -1.5769198139 8.1939045750 -4.5222282367 
S -0.0005790812 9.1037272855 1.5671706191 
S -1.5833858859 10.0317279696 7.6494712370 
Mo 7.8860041395 2.7304574523 6.0714317654 
Mo 7.8845808939 0.9104407117 -6.0872367793 
Mo 6.3074969776 1.8211321301 -0.0000339910 
S 6.3076655943 0.0000077495 -7.6506323570 
S 7.8842815915 0.9102237693 -1.5658812447 
S 6.3050606126 1.8190534325 4.5051714613 
S 6.3076664681 0.0000068460 -4.5222282367 
S 7.8842516650 0.9094909825 1.5661796453 
S 6.3195936801 1.8088511647 7.6464204827 
Mo 6.3217854232 5.4631243567 6.0857333791 
Mo 6.3076623239 3.6417399547 -6.0872367793 
Mo 4.7303812729 4.5523613984 -0.0000993266 
S 4.7307470244 2.7313069925 -7.6506323570 
S 6.3074133803 3.6418611425 -1.5660595443 
S 4.7064745479 4.5661598075 4.5575337487 
S 4.7307478981 2.7313060890 -4.5222282367 
S 6.3066261149 3.6423151389 1.5684757287 
S 4.8261929499 4.4970417430 7.7039528891 
Mo 4.7484958868 8.2106435281 6.0879792593 
Mo 4.7307437539 6.3730391977 -6.0872367793 
Mo 3.1527567950 7.2829233399 -0.0010172443 
S 3.1538284544 5.4626062355 -7.6506323570 
S 4.7301933923 6.3727381457 -1.5664034263 
S 3.1497207047 7.2656068236 4.5655832007 
S 3.1538293281 5.4626053320 -4.5222282367 
S 4.7299681517 6.3732974112 1.5667686375 
S 3.1730017999 7.3955970736 7.7139274650 
Mo 9.4705914990 0.0069678149 6.0739403340 
Mo 3.1538251839 9.1043384407 -6.0872367793 
Mo 1.5764644626 10.0136439769 -0.0008620802 
S 1.5769098844 8.1939054785 -7.6506323570 
S 3.1540591241 9.1042142708 -1.5660140552 
S 1.5815322340 10.0034772569 4.5126804644 
S 1.5769107581 8.1939045750 -4.5222282367 
S 3.1536185981 9.1029743966 1.5671455794 
S 1.5790626916 10.0466781717 7.6525246434 
Mo -1.5784148661 2.7199111174 6.0739460984 
Mo 11.0384114659 0.9104407117 -6.0872367793 
Mo 9.4614449501 1.8208807120 -0.0002178664 
S 9.4614961663 0.0000077495 -7.6506323570 
S 11.0382911084 0.9104873486 -1.5662302574 
S 9.4614487106 1.8208725369 4.5014104428 
S 9.4614970401 0.0000068460 -4.5222282367 
S 11.0386771065 0.9102645093 1.5665360115 
S 9.4589556207 1.8223075178 7.6446835609 
Mo -3.1525089418 5.4628699834 6.0718370892 
Mo 9.4614928959 3.6417399547 -6.0872367793 
Mo 7.8842499276 4.5521564841 -0.0000343052 
S 7.8845775964 2.7313069925 -7.6506323570 
S 9.4615119210 3.6420749488 -1.5658813325 
S 7.8848279922 4.5552973688 4.5051716456 
S 7.8845784701 2.7313060890 -4.5222282367 
S 9.4621310874 3.6424658421 1.5661793461 
S 7.9009275629 4.5478124503 7.6464205819 
Mo -4.7386378217 8.1995710216 6.0789611718 
Mo 7.8845743259 6.3730391977 -6.0872367793 
Mo 6.3073850056 7.2833101083 -0.0007932319 
S 6.3076590264 5.4626062355 -7.6506323570 
S 7.8844868028 6.3724767401 -1.5666454602 
S 6.3064677783 7.2818486338 4.5117083038 
S 6.3076599001 5.4626053320 -4.5222282367 
S 7.8854335325 6.3738544187 1.5655003142 
S 6.3134276367 7.2836444207 7.6539101182 
Mo -0.0007423498 0.0004130057 6.0712916956 
Mo 6.3076557559 9.1043384407 -6.0872367793 
Mo 4.7310451557 10.0147991821 -0.0004836111 
S 4.7307404564 8.1939054785 -7.6506323570 
S 6.3070958570 9.1041672998 -1.5669483719 
S 4.7328890195 10.0131524154 4.5046631833 
S 4.7307413301 8.1939045750 -4.5222282367 
S 6.3081473726 9.1043557675 1.5659134770 
S 4.7403225128 10.0337150453 7.6497986949 
Pd 3.1473441144 5.4663450332 9.0230232247 
H 0.0020310705 7.2823669257 9.0210789249 

