&CONTROL
   calculation      = 'nscf'
   verbosity        = 'high'
   restart_mode     = 'from_scratch'
   wf_collect       = .true.
   outdir           = './outdir'
   pseudo_dir       = './pseudo'
/
&SYSTEM
   nbnd             = 1683
   ecutwfc          = 77.0
   ecutrho          = 539.0
   occupations      = 'tetrahedra'
   assume_isolated  = 'esm'
   esm_bc           = 'bc1'
   vdw_corr         = 'dft-d3'
   dftd3_version    = 4
   ntyp             = 4
   nat              = 194
   ibrav            = 0
/
&ELECTRONS
   electron_maxstep = 1000
   conv_thr         = 1e-06
   mixing_beta      = 0.2
   diagonalization  = 'david'
/
&IONS
/
&CELL
/

ATOMIC_SPECIES
Mo 95.95 Mo.pbe-spn-kjpaw_psl.1.0.0.UPF
S 32.06 S.pbe-n-kjpaw_psl.1.0.0.UPF
Pd 106.42 Pd.pbe-spn-kjpaw_psl.1.0.0.UPF
H 1.008 H.pbe-kjpaw_psl.1.0.0.UPF

K_POINTS automatic
2 2 1  0 0 0

CELL_PARAMETERS angstrom
12.60495876880469 0.00000000000000 0.00000000000000
-6.30246677944357 10.91622202271285 0.00000000000000
0.00000000000000 0.00000000000000 36.46614571815195

ATOMIC_POSITIONS angstrom
Mo 0.0000119917 1.8193638619 -9.1672481230 
Mo 1.5756136568 0.9097075315 -3.0554901653 
S 0.0000188998 1.8193822938 -4.6232556019 
S 1.5756321638 0.9096773839 -7.6014065489 
S 1.5756326175 0.9096785128 -10.7330757790 
S 0.0000189190 1.8193860094 -1.4877129945 
Mo 0.0000856401 1.8195044784 3.0555316202 
Mo 1.5750866791 0.9090336091 9.1566292413 
S 0.0005349205 1.8196920075 7.5845095255 
S 1.5758151587 0.9097880191 4.6229024928 
S 1.5756223660 0.9097618159 1.4877083510 
S -0.0061624542 1.8054405333 10.7270132952 
Mo -1.5756053507 4.5484193819 -9.1672481230 
Mo 0.0000378379 3.6387394919 -3.0554952701 
S -1.5755913433 4.5484363582 -4.6232494962 
S 0.0000148214 3.6387329039 -7.6014065489 
S 0.0000152751 3.6387340328 -10.7330757790 
S -1.5755906502 4.5484413613 -1.4877305502 
Mo -1.5754345845 4.5485873827 3.0557449215 
Mo -0.0133261441 3.6278794548 9.1592714297 
S -1.5785719555 4.5513397021 7.5911355718 
S 0.0004950346 3.6391561061 4.6236515891 
S -0.0000907728 3.6387692210 1.4877948350 
S -1.5835256430 4.5395370296 10.7333774828 
Mo -3.1512226931 7.2774749019 -9.1672481230 
Mo -1.5755910988 6.3678216792 -3.0555115988 
S -3.1512162438 7.2774954350 -4.6232578178 
S -1.5756025210 6.3677884239 -7.6014065489 
S -1.5756020673 6.3677895528 -10.7330757790 
S -3.1512127704 7.2774877076 -1.4877200710 
Mo -3.1511328055 7.2774398627 3.0553524435 
Mo -1.5840986285 6.3617182856 9.1712196535 
S -3.1480842556 7.2751525943 7.5927932330 
S -1.5749673910 6.3682927914 4.6232280609 
S -1.5756915636 6.3676045708 1.4875335431 
S -3.1648948820 7.2784577773 10.7315945583 
Mo -4.7268400355 10.0065304219 -9.1672481230 
Mo -3.1512405618 9.0968403586 -3.0554816746 
S -4.7268341792 10.0065523623 -4.6232463762 
S -3.1512198634 9.0968439439 -7.6014065489 
S -3.1512194097 9.0968450728 -10.7330757790 
S -4.7268370797 10.0065537885 -1.4877176751 
Mo -4.7267924533 10.0065302256 3.0553850613 
Mo -3.1508416270 9.0966774899 9.1592978814 
S -4.7247243349 10.0053632220 7.5889611954 
S -3.1510231426 9.0967591877 4.6228939068 
S -3.1511871471 9.0968541028 1.4876497894 
S -4.7271799340 10.0067768688 10.7260004606 
Mo 3.1512517547 1.8193638619 -9.1672481230 
Mo 4.7269020221 0.9097289540 -3.0554823951 
S 3.1512612351 1.8193882564 -4.6232320683 
S 4.7268719268 0.9096773839 -7.6014065489 
S 4.7268723805 0.9096785128 -10.7330757790 
S 3.1512592485 1.8193890201 -1.4877261251 
Mo 3.1512114389 1.8195815096 3.0553499441 
Mo 4.7256316931 0.9112510965 9.1581172389 
S 3.1510658848 1.8260284790 7.5920045231 
S 4.7267911822 0.9097823770 4.6229803339 
S 4.7268551940 0.9097773431 1.4876440908 
S 3.1520347761 1.8030150320 10.7345988540 
Mo 1.5756344123 4.5484193819 -9.1672481230 
Mo 3.1512756394 3.6387769522 -3.0554814834 
S 1.5756504879 4.5484423799 -4.6232390542 
S 3.1512545844 3.6387329039 -7.6014065489 
S 3.1512550381 3.6387340328 -10.7330757790 
S 1.5756466253 4.5484431864 -1.4877251801 
Mo 1.5756020337 4.5488513807 3.0550420484 
Mo 3.1537440937 3.6310337663 9.1750685623 
S 1.5766419674 4.5722712006 7.6312526459 
S 3.1506092908 3.6391426678 4.6234641594 
S 3.1513225175 3.6389165074 1.4876464164 
S 1.5631410009 4.4651586157 10.7688595171 
Mo 0.0000170699 7.2774749019 -9.1672481230 
Mo 1.5756764447 6.3678236689 -3.0554877708 
S 0.0000381981 7.2774979204 -4.6232454413 
S 1.5756372420 6.3677884239 -7.6014065489 
S 1.5756376957 6.3677895528 -10.7330757790 
S 0.0000328088 7.2774946042 -1.4877307940 
Mo 0.0003049627 7.2773375083 3.0546277737 
Mo 1.5723160846 6.3697628194 9.2262538901 
S 0.0190003407 7.2665669719 7.6365733673 
S 1.5753779772 6.3679673137 4.6224667938 
S 1.5757593538 6.3677469811 1.4867062841 
S -0.0846863539 7.3264323052 10.7861973549 
Mo -1.5756002725 10.0065304219 -9.1672481230 
Mo 0.0000873425 9.0968676911 -3.0554912329 
S -1.5755883952 10.0065504530 -4.6232240150 
S 0.0000198996 9.0968439439 -7.6014065489 
S 0.0000203533 9.0968450728 -10.7330757790 
S -1.5755859047 10.0065492576 -1.4877362381 
Mo -1.5754995657 10.0065124029 3.0553527548 
Mo 0.0010739752 9.1073163504 9.1712176575 
S -1.5719779716 10.0050528659 7.5927937295 
S -0.0000737504 9.0960852391 4.6232294615 
S 0.0001607926 9.0970571267 1.4875339168 
S -1.5832431575 10.0179558898 10.7315946838 
Mo 6.3024915177 1.8193638619 -9.1672481230 
Mo 7.8781001445 0.9096521684 -3.0554919963 
S 6.3025008696 1.8193826232 -4.6232480596 
S 7.8781116898 0.9096773839 -7.6014065489 
S 7.8781121435 0.9096785128 -10.7330757790 
S 6.3025042007 1.8193849068 -1.4877147524 
Mo 6.3023823801 1.8194687624 3.0553626522 
Mo 7.8750309252 0.9137595545 9.1577371332 
S 6.2995080212 1.8237787487 7.5901627118 
S 7.8780388620 0.9097373200 4.6228262544 
S 7.8779996808 0.9095377923 1.4877163492 
S 6.3014299932 1.8205296652 10.7293516019 
Mo 4.7268741753 4.5484193819 -9.1672481230 
Mo 6.3024679138 3.6387501714 -3.0554895197 
S 4.7268748770 4.5484386753 -4.6232519432 
S 6.3024943474 3.6387329039 -7.6014065489 
S 6.3024948011 3.6387340328 -10.7330757790 
S 4.7268770533 4.5484432419 -1.4877137856 
Mo 4.7265220991 4.5486525153 3.0557770391 
Mo 6.3010569799 3.6396142930 9.1617068775 
S 4.7213132470 4.5516780535 7.6009244784 
S 6.3022055958 3.6389288038 4.6230102570 
S 6.3022098340 3.6389271073 1.4878200807 
S 4.7317124684 4.5456809771 10.7382398185 
Mo 3.1512568329 7.2774749019 -9.1672481230 
Mo 4.7268384135 6.3678043337 -3.0554959052 
S 3.1512606125 7.2774972547 -4.6232589675 
S 4.7268770050 6.3677884239 -7.6014065489 
S 4.7268774587 6.3677895528 -10.7330757790 
S 3.1512629079 7.2774963749 -1.4877081835 
Mo 3.1508918547 7.2773289607 3.0550424248 
Mo 4.7348394776 6.3695600918 9.1750606501 
S 3.1311522151 7.2647559856 7.6312447939 
S 4.7262260295 6.3681879456 4.6234648195 
S 4.7267771220 6.3676829992 1.4876451333 
S 3.2171734227 7.3300158054 10.7688454473 
Mo 1.5756394905 10.0065304219 -9.1672481230 
Mo 3.1512330605 9.0968514907 -3.0554878870 
S 1.5756499830 10.0065443759 -4.6232632674 
S 3.1512596626 9.0968439439 -7.6014065489 
S 3.1512601163 9.0968450728 -10.7330757790 
S 1.5756503041 10.0065459699 -1.4877044377 
Mo 1.5756057414 10.0063386372 3.0557459420 
Mo 3.1540361111 9.1139090906 9.1592609138 
S 1.5716683717 10.0077194076 7.5911292532 
S 3.1511618875 9.0962584022 4.6236530262 
S 3.1512035727 9.0969591220 1.4877954581 
S 1.5794201747 10.0179073393 10.7333725090 
Mo 9.4537312807 1.8193638619 -9.1672481230 
Mo 11.0293863460 0.9096952246 -3.0554894007 
S 9.4537395970 1.8193770750 -4.6232328036 
S 11.0293514528 0.9096773839 -7.6014065489 
S 11.0293519066 0.9096785128 -10.7330757790 
S 9.4537393632 1.8193794783 -1.4877366147 
Mo 9.4536738621 1.8194262285 3.0551914391 
Mo 11.0286716546 0.9101246790 9.1509325646 
S 9.4497117757 1.8217360533 7.5865016660 
S 11.0292177321 0.9097836595 4.6227623082 
S 11.0294514268 0.9096476207 1.4876869029 
S 9.4529354716 1.8198734966 10.7231183488 
Mo 7.8781139383 4.5484193819 -9.1672481230 
Mo 9.4537539161 3.6387607911 -3.0554933032 
S 7.8781175448 4.5484378232 -4.6232366318 
S 9.4537341104 3.6387329039 -7.6014065489 
S 9.4537345641 3.6387340328 -10.7330757790 
S 7.8781194018 4.5484411585 -1.4877377057 
Mo 7.8779940391 4.5485031501 3.0553633119 
Mo 9.4487042736 3.6394365470 9.1577385933 
S 7.8728443918 4.5488691137 7.5901621291 
S 9.4536706971 3.6388094561 4.6228281573 
S 9.4538212005 3.6389424376 1.4877142098 
S 7.8766174250 4.5488335089 10.7293509289 
Mo 6.3024965959 7.2774749019 -9.1672481230 
Mo 7.8781361655 6.3678242352 -3.0555014130 
S 6.3024973331 7.2774953556 -4.6232392528 
S 7.8781167680 6.3677884239 -7.6014065489 
S 7.8781172217 6.3677895528 -10.7330757790 
S 6.3024989866 7.2774929744 -1.4877349119 
Mo 6.3023134975 7.2774424538 3.0553496345 
Mo 7.8761814648 6.3681521111 9.1581138187 
S 6.2966821516 7.2743802158 7.5919980450 
S 7.8780111495 6.3678497898 4.6229804120 
S 7.8780473985 6.3677944777 1.4876442081 
S 6.3170945851 7.2850483304 10.7345930416 
Mo 4.7268792535 10.0065304219 -9.1672481230 
Mo 6.3025111524 9.0968738021 -3.0554915260 
S 4.7268840634 10.0065452125 -4.6232380477 
S 6.3024994256 9.0968439439 -7.6014065489 
S 6.3024998793 9.0968450728 -10.7330757790 
S 4.7268847312 10.0065459141 -1.4877283294 
Mo 4.7268213608 10.0064380218 3.0555318066 
Mo 6.3028318541 9.0977163087 9.1566243514 
S 4.7269075523 10.0059981236 7.5845035306 
S 6.3025211708 9.0966703769 4.6229040708 
S 6.3024468623 9.0968514022 1.4877064774 
S 4.7358977339 10.0189187948 10.7270075715 
Pd 1.6278936647 6.3377316528 12.1956345386 
H 2.4483495989 5.8641869124 13.4723776244 

