&CONTROL
   calculation      = 'relax'
   restart_mode     = 'from_scratch'
   wf_collect       = .true.
   nstep            = 1000
   tstress          = .true.
   tprnfor          = .true.
   outdir           = './outdir'
   pseudo_dir       = './pseudo'
/
&SYSTEM
   ecutwfc          = 77.0
   ecutrho          = 539.0
   nosym            = .false.
   occupations      = 'smearing'
   degauss          = 0.01
   smearing         = 'gaussian'
   assume_isolated  = 'esm'
   esm_bc           = 'bc1'
   vdw_corr         = 'dft-d3'
   dftd3_version    = 4
   ntyp             = 2
   nat              = 96
   ibrav            = 0
/
&ELECTRONS
   electron_maxstep = 1000
   conv_thr         = 1e-06
   mixing_beta      = 0.2
   diagonalization  = 'david'
/
&IONS
/
&CELL
/

ATOMIC_SPECIES
Mo 95.95 Mo.pbe-spn-kjpaw_psl.1.0.0.UPF
C 12.011 C.pbe-n-kjpaw_psl.1.0.0.UPF

K_POINTS automatic
2 2 1  0 0 0

CELL_PARAMETERS angstrom
12.03707724200361 0.00000000000000 0.00000000000000
-0.00000842786624 10.38171227799743 0.00000000000000
0.00000000000000 0.00000000000000 23.27656807427010

ATOMIC_POSITIONS angstrom
Mo 0.7392229129 4.7791951606 4.1382797067 
Mo 5.2792674113 0.4116486587 1.7402062371 
Mo 2.2700186273 2.1837781873 4.0993879320 
Mo 3.7485297923 3.0070798731 1.7791194893 
Mo 2.2700167112 0.4116547110 1.7791081316 
Mo 3.7485317007 4.7792015867 4.0993738611 
Mo 0.7392239354 3.0070810216 1.7402158342 
Mo 5.2792698338 2.1837857932 4.1382840371 
C 2.2717438700 3.8931505305 0.5800754048 
C 3.7467959704 1.2977008138 0.5800662869 
C 0.7374965066 1.2977086684 2.9392496423 
C 5.2810045290 3.8931526007 2.9392453796 
Mo 0.7392167442 4.7791953004 -0.5800706173  0 0 0
Mo 5.2792612426 0.4116487985 -2.9781440869  0 0 0
Mo 2.2700124587 2.1837783271 -0.6189623920  0 0 0
Mo 3.7485236236 3.0070800129 -2.9392308347  0 0 0
Mo 2.2700105426 0.4116548508 -2.9392421924  0 0 0
Mo 3.7485255320 4.7792017265 -0.6189764629  0 0 0
Mo 0.7392177667 3.0070811614 -2.9781344898  0 0 0
Mo 5.2792636652 2.1837859330 -0.5800662869  0 0 0
C 2.2717377014 3.8931506703 -4.1382749192  0 0 0
C 3.7467898018 1.2977009536 -4.1382840371  0 0 0
C 0.7374903379 1.2977088082 -1.7791006817  0 0 0
C 5.2809983604 3.8931527405 -1.7791049444  0 0 0
Mo 0.7392186990 9.9700512996 4.1382797067 
Mo 5.2792631974 5.6025047977 1.7402062371 
Mo 2.2700144134 7.3746343263 4.0993879320 
Mo 3.7485255784 8.1979360121 1.7791194893 
Mo 2.2700124973 5.6025108500 1.7791081316 
Mo 3.7485274867 9.9700577257 4.0993738611 
Mo 0.7392197214 8.1979371606 1.7402158342 
Mo 5.2792656199 7.3746419322 4.1382840371 
C 2.2717396561 9.0840066695 0.5800754048 
C 3.7467917565 6.4885569528 0.5800662869 
C 0.7374922926 6.4885648074 2.9392496423 
C 5.2810003151 9.0840087397 2.9392453796 
Mo 0.7392125303 9.9700514394 -0.5800706173  0 0 0
Mo 5.2792570287 5.6025049375 -2.9781440869  0 0 0
Mo 2.2700082447 7.3746344661 -0.6189623920  0 0 0
Mo 3.7485194097 8.1979361519 -2.9392308347  0 0 0
Mo 2.2700063286 5.6025109898 -2.9392421924  0 0 0
Mo 3.7485213181 9.9700578655 -0.6189764629  0 0 0
Mo 0.7392135528 8.1979373004 -2.9781344898  0 0 0
Mo 5.2792594512 7.3746420720 -0.5800662869  0 0 0
C 2.2717334874 9.0840068093 -4.1382749192  0 0 0
C 3.7467855878 6.4885570926 -4.1382840371  0 0 0
C 0.7374861240 6.4885649472 -1.7791006817  0 0 0
C 5.2809941464 9.0840088795 -1.7791049444  0 0 0
Mo 6.7577615339 4.7791951606 4.1382797067 
Mo 11.2978060323 0.4116486587 1.7402062371 
Mo 8.2885572483 2.1837781873 4.0993879320 
Mo 9.7670684133 3.0070798731 1.7791194893 
Mo 8.2885553322 0.4116547110 1.7791081316 
Mo 9.7670703217 4.7792015867 4.0993738611 
Mo 6.7577625564 3.0070810216 1.7402158342 
Mo 11.2978084548 2.1837857932 4.1382840371 
C 8.2902824910 3.8931505305 0.5800754048 
C 9.7653345914 1.2977008138 0.5800662869 
C 6.7560351276 1.2977086684 2.9392496423 
C 11.2995431500 3.8931526007 2.9392453796 
Mo 6.7577553652 4.7791953004 -0.5800706173  0 0 0
Mo 11.2977998636 0.4116487985 -2.9781440869  0 0 0
Mo 8.2885510797 2.1837783271 -0.6189623920  0 0 0
Mo 9.7670622446 3.0070800129 -2.9392308347  0 0 0
Mo 8.2885491636 0.4116548508 -2.9392421924  0 0 0
Mo 9.7670641530 4.7792017265 -0.6189764629  0 0 0
Mo 6.7577563877 3.0070811614 -2.9781344898  0 0 0
Mo 11.2978022862 2.1837859330 -0.5800662869  0 0 0
C 8.2902763224 3.8931506703 -4.1382749192  0 0 0
C 9.7653284228 1.2977009536 -4.1382840371  0 0 0
C 6.7560289589 1.2977088082 -1.7791006817  0 0 0
C 11.2995369814 3.8931527405 -1.7791049444  0 0 0
Mo 6.7577573200 9.9700512996 4.1382797067 
Mo 11.2978018184 5.6025047977 1.7402062371 
Mo 8.2885530344 7.3746343263 4.0993879320 
Mo 9.7670641994 8.1979360121 1.7791194893 
Mo 8.2885511183 5.6025108500 1.7791081316 
Mo 9.7670661077 9.9700577257 4.0993738611 
Mo 6.7577583424 8.1979371606 1.7402158342 
Mo 11.2978042409 7.3746419322 4.1382840371 
C 8.2902782771 9.0840066695 0.5800754048 
C 9.7653303775 6.4885569528 0.5800662869 
C 6.7560309136 6.4885648074 2.9392496423 
C 11.2995389361 9.0840087397 2.9392453796 
Mo 6.7577511513 9.9700514394 -0.5800706173  0 0 0
Mo 11.2977956497 5.6025049375 -2.9781440869  0 0 0
Mo 8.2885468657 7.3746344661 -0.6189623920  0 0 0
Mo 9.7670580307 8.1979361519 -2.9392308347  0 0 0
Mo 8.2885449496 5.6025109898 -2.9392421924  0 0 0
Mo 9.7670599391 9.9700578655 -0.6189764629  0 0 0
Mo 6.7577521738 8.1979373004 -2.9781344898  0 0 0
Mo 11.2977980722 7.3746420720 -0.5800662869  0 0 0
C 8.2902721084 9.0840068093 -4.1382749192  0 0 0
C 9.7653242088 6.4885570926 -4.1382840371  0 0 0
C 6.7560247450 6.4885649472 -1.7791006817  0 0 0
C 11.2995327674 9.0840088795 -1.7791049444  0 0 0

