&CONTROL
   calculation      = 'relax'
   restart_mode     = 'from_scratch'
   wf_collect       = .true.
   nstep            = 9999
   tstress          = .false.
   tprnfor          = .true.
   outdir           = '/scratch/calc/outdir'
   pseudo_dir       = './pseudo'
/
&SYSTEM
   ecutwfc          = 36
   ecutrho          = 400
   nosym            = .true.
   occupations      = 'smearing'
   degauss          = 0.01
   smearing         = 'gaussian'
   vdw_corr         = 'dft-d3'
   dftd3_version    = 4
   ntyp             = 4
   nat              = 36
   ibrav            = 0
/
&ELECTRONS
   electron_maxstep = 9999
   conv_thr         = 1e-06
   mixing_beta      = 0.2
   diagonalization  = 'david'
/
&IONS
/
&CELL
/

ATOMIC_SPECIES
C 12.011 C.pbe-n-kjpaw_psl.1.0.0.UPF
H 1.008 H.pbe-kjpaw_psl.1.0.0.UPF
N 14.007 N.pbe-n-kjpaw_psl.1.0.0.UPF
O 15.999 O.pbe-n-kjpaw_psl.1.0.0.UPF

K_POINTS automatic
2 2 2  0 0 0

CELL_PARAMETERS angstrom
3.80170000000000 0.00000000000000 0.00000000000000
-1.38702139549352 6.46437188738730 0.00000000000000
-1.11127512241697 -2.98394888967750 14.13068793888286

ATOMIC_POSITIONS angstrom
C 2.7105934672 1.8624138490 0.0549683761 
C -1.4071899851 1.6180091487 14.0757195628 
C 1.7728370035 5.0834825503 4.6547899139 
C -0.4694335214 -1.6030595525 9.4758980249 
C 1.2916947809 4.4998707398 5.6699385355 
C 0.0117087012 -1.0194477421 8.4607494034 
C 0.8425115972 3.1677449766 5.5882631592 
C 0.4608918849 0.3126780211 8.5424247797 
C 1.0899168603 2.4246622702 4.4491884044 
C 0.2134866218 1.0557607275 9.6814995344 
C 1.6966039280 2.9963838865 3.4600402487 
C -0.3932004459 0.4840391112 10.6706476902 
C 2.0701311256 4.3131499319 3.5192478312 
C -0.7667276435 -0.8327269342 10.6114401077 
C -1.1484752296 4.9101355501 2.2350509113 
C 2.4518787117 -1.4297125524 11.8956370276 
C -0.9181197025 4.1100175310 1.0838237649 
C 2.2215231846 -0.6295945333 13.0468641740 
C 2.4949331903 2.7335672232 1.1394986754 
C -1.1915297082 0.7468557745 12.9911892635 
H -0.4271393643 -0.4767833058 4.6915297026 
H 1.7305428464 3.9572063035 9.4391582363 
H 1.1521907235 5.0080560639 6.5230081663 
H 0.1512127586 -1.5276330662 7.6076797725 
H 0.4279672616 2.7293785781 6.3913101548 
H 0.8754362205 0.7510444196 7.7393777841 
H 0.9220049649 1.4935234995 4.4743410290 
H 0.3813985172 1.9868994982 9.6563469099 
H 1.6513635005 1.3478475092 2.2866279223 
H -0.3479600184 2.1325754885 11.8440600166 
H 2.4379935751 0.9687377280 0.1114911278 
H -1.1345900930 2.5116852697 14.0191968110 
N 1.8646477383 2.2091008426 2.2832365572 
N -0.5612442563 1.2713221551 11.8474513817 
O 0.5894245100 -0.2269424275 2.2624644459 
O 0.7139789721 3.7073654252 11.8682234930 

