&CONTROL
   calculation      = 'nscf'
   verbosity        = 'high'
   restart_mode     = 'from_scratch'
   wf_collect       = .true.
   outdir           = './outdir'
   pseudo_dir       = './pseudo'
/
&SYSTEM
   nbnd             = 1249
   ecutwfc          = 77.0
   ecutrho          = 539.0
   occupations      = 'tetrahedra'
   assume_isolated  = 'esm'
   esm_bc           = 'bc1'
   vdw_corr         = 'dft-d3'
   dftd3_version    = 4
   ntyp             = 3
   nat              = 145
   ibrav            = 0
/
&ELECTRONS
   electron_maxstep = 1000
   conv_thr         = 1e-06
   mixing_beta      = 0.2
   diagonalization  = 'david'
/
&IONS
/
&CELL
/

ATOMIC_SPECIES
Mo 95.95 Mo.pbe-spn-kjpaw_psl.1.0.0.UPF
S 32.06 S.pbe-n-kjpaw_psl.1.0.0.UPF
H 1.008 H.pbe-kjpaw_psl.1.0.0.UPF

K_POINTS automatic
2 2 1  0 0 0

CELL_PARAMETERS angstrom
12.61532217525308 0.00000000000000 0.00000000000000
-6.30767370294872 10.92519700214573 0.00000000000000
0.00000000000000 0.00000000000000 30.30125956094956

ATOMIC_POSITIONS angstrom
Mo 1.5618360772 2.7387104203 6.0728910793 
Mo 1.5769197498 0.9104407117 -6.0872367793 
Mo -0.0004940200 1.8250387948 -0.0068370580 
S 0.0000044503 0.0000077495 -7.6506323570 
S 1.5762904296 0.9152163013 -1.5728663318 
S -0.0083813132 1.8284230077 4.5014943991 
S 0.0000053241 0.0000068460 -4.5222282367 
S 1.5768880477 0.9148678094 1.5596219057 
S -0.0156764456 1.8253797906 7.6379555800 
Mo -0.0146360179 5.4716474241 6.0686624952 
Mo 0.0000011799 3.6417399547 -6.0872367793 
Mo -1.5769428414 4.5563579885 -0.0066015674 
S -1.5769141197 2.7313069925 -7.6506323570 
S -0.0005259620 3.6457686317 -1.5721286826 
S -1.5802010343 4.5572768398 4.4950209213 
S -1.5769132459 2.7313060890 -4.5222282367 
S 0.0007173599 3.6460390488 1.5603511977 
S -1.5929924011 4.5585045832 7.6339331059 
Mo -1.5841018860 8.2038221535 6.0669221197 
Mo -1.5769173901 6.3730391977 -6.0872367793 
Mo -3.1541583203 7.2875646526 -0.0070774077 
S -3.1538326896 5.4626062355 -7.6506323570 
S -1.5775606064 6.3765666999 -1.5725278758 
S -3.1568816645 7.2947695587 4.4962284886 
S -3.1538318159 5.4626053320 -4.5222282367 
S -1.5766919937 6.3777378932 1.5597318109 
S -3.1619392129 7.2890231251 7.6275667653 
Mo 3.1424088460 0.0053355319 6.0700000874 
Mo -3.1538359601 9.1043384407 -6.0872367793 
Mo -4.7309265401 10.0192378649 -0.0083217617 
S -4.7307512596 8.1939054785 -7.6506323570 
S -3.1541149930 9.1079700290 -1.5731985099 
S -4.7362390362 10.0286628628 4.4979388769 
S -4.7307503859 8.1939045750 -4.5222282367 
S -3.1541382638 9.1092488942 1.5588548611 
S -4.7419707721 10.0183331471 7.6371890110 
Mo 4.7090843158 2.7399470087 6.1054844060 
Mo 4.7307503218 0.9104407117 -6.0872367793 
Mo 3.1534288324 1.8256599782 -0.0078682113 
S 3.1538350223 0.0000077495 -7.6506323570 
S 4.7309085183 0.9153815718 -1.5726204611 
S 3.1511070310 1.8365349405 4.5142458175 
S 3.1538358961 0.0000068460 -4.5222282367 
S 4.7297628211 0.9144305631 1.5596608343 
S 3.1251017107 1.8163837750 7.6483346547 
Mo 3.1368506990 5.4649980037 6.1078321335 
Mo 3.1538317519 3.6417399547 -6.0872367793 
Mo 1.5770430159 4.5562534203 -0.0077690993 
S 1.5769164523 2.7313069925 -7.6506323570 
S 3.1536889256 3.6460399779 -1.5735201158 
S 1.5778469159 4.5676321890 4.5143239893 
S 1.5769173261 2.7313060890 -4.5222282367 
S 3.1532912528 3.6459930374 1.5592824800 
S 1.5443486676 4.5541476529 7.6490928232 
Mo 1.5664068339 8.2009742077 6.0794831012 
Mo 1.5769131819 6.3730391977 -6.0872367793 
Mo -0.0003609807 7.2877450011 -0.0082608714 
S -0.0000021176 5.4626062355 -7.6506323570 
S 1.5767216729 6.3768946054 -1.5732821259 
S -0.0043726591 7.2940670825 4.5038990637 
S -0.0000012439 5.4626053320 -4.5222282367 
S 1.5765788196 6.3777322471 1.5590213876 
S -0.0169108412 7.2911890055 7.6414709244 
Mo 6.2959061866 0.0095990421 6.0787776125 
Mo -0.0000053881 9.1043384407 -6.0872367793 
Mo -1.5772620143 10.0190953872 -0.0083061096 
S -1.5769206876 8.1939054785 -7.6506323570 
S -0.0002172756 9.1086435108 -1.5735850092 
S -1.5829198542 10.0283284419 4.5056695687 
S -1.5769198139 8.1939045750 -4.5222282367 
S -0.0007548245 9.1085282860 1.5588275888 
S -1.5902922175 10.0190480100 7.6422140635 
Mo 7.8700661592 2.7478766038 6.0721756399 
Mo 7.8845808939 0.9104407117 -6.0872367793 
Mo 6.3071648657 1.8253215096 -0.0060311332 
S 6.3076655943 0.0000077495 -7.6506323570 
S 7.8839261119 0.9150094284 -1.5719821523 
S 6.2872065852 1.8351304498 4.5192854172 
S 6.3076664681 0.0000068460 -4.5222282367 
S 7.8836397132 0.9139952905 1.5607396083 
S 6.3072525564 1.8242146016 7.6521783399 
Mo 6.3238165307 5.4852628611 6.0230170118 
Mo 6.3076623239 3.6417399547 -6.0872367793 
Mo 4.7298827431 4.5562075179 -0.0071115042 
S 4.7307470244 2.7313069925 -7.6506323570 
S 6.3076698493 3.6459442472 -1.5712787453 
S 4.7130160372 4.5606458003 4.5373809693 
S 4.7307478981 2.7313060890 -4.5222282367 
S 6.3057510122 3.6465126382 1.5618536655 
S 4.6156840917 4.5011442723 7.7765721988 
Mo 4.7298259243 8.1922569265 6.0745592128 
Mo 4.7307437539 6.3730391977 -6.0872367793 
Mo 3.1536235325 7.2874743838 -0.0076940748 
S 3.1538284544 5.4626062355 -7.6506323570 
S 4.7308062506 6.3766959377 -1.5727127585 
S 3.1449259285 7.2836489948 4.5218180090 
S 3.1538293281 5.4626053320 -4.5222282367 
S 4.7301759772 6.3770740447 1.5603893549 
S 3.1452434896 7.3058467217 7.6547769028 
Mo 9.4535184595 0.0071987163 6.0741145860 
Mo 3.1538251839 9.1043384407 -6.0872367793 
Mo 1.5764322516 10.0188441675 -0.0075589439 
S 1.5769098844 8.1939054785 -7.6506323570 
S 3.1533866699 9.1083315678 -1.5730225658 
S 1.5664798697 10.0227436458 4.5132714332 
S 1.5769107581 8.1939045750 -4.5222282367 
S 3.1532567064 9.1079974089 1.5596147011 
S 1.5689396813 10.0243579296 7.6444686553 
Mo -1.5870603646 2.7389726642 6.0660835620 
Mo 11.0384114659 0.9104407117 -6.0872367793 
Mo 9.4609454959 1.8246176139 -0.0065045918 
S 9.4614961663 0.0000077495 -7.6506323570 
S 11.0377897831 0.9148515360 -1.5723605199 
S 9.4457576742 1.8268839790 4.5073223018 
S 9.4614970401 0.0000068460 -4.5222282367 
S 11.0379076044 0.9138597253 1.5601938986 
S 9.4511331933 1.8332665886 7.6379318237 
Mo -3.1572277125 5.4692905930 6.0573957010 
Mo 9.4614928959 3.6417399547 -6.0872367793 
Mo 7.8840115033 4.5564003103 -0.0057219059 
S 7.8845775964 2.7313069925 -7.6506323570 
S 9.4609040172 3.6458821839 -1.5711955669 
S 7.8851502015 4.5595018735 4.4837446637 
S 7.8845784701 2.7313060890 -4.5222282367 
S 9.4617062562 3.6454688592 1.5600013959 
S 7.8720878347 4.5726357334 7.6257514660 
Mo -4.7352354519 8.2068595267 6.0603584196 
Mo 7.8845743259 6.3730391977 -6.0872367793 
Mo 6.3074695668 7.2875402639 -0.0074869309 
S 6.3076590264 5.4626062355 -7.6506323570 
S 7.8844775362 6.3763420019 -1.5720137630 
S 6.3074044565 7.3005956119 4.4851368933 
S 6.3076599001 5.4626053320 -4.5222282367 
S 7.8839415979 6.3778037173 1.5603070995 
S 6.3115738860 7.2797282357 7.6284272592 
Mo -0.0076478027 0.0065512923 6.0676113919 
Mo 6.3076557559 9.1043384407 -6.0872367793 
Mo 4.7301970555 10.0188323284 -0.0078656608 
S 4.7307404564 8.1939054785 -7.6506323570 
S 6.3074066561 9.1082537849 -1.5733513213 
S 4.7195562792 10.0155155158 4.5086989484 
S 4.7307413301 8.1939045750 -4.5222282367 
S 6.3075164218 9.1092529989 1.5582011102 
S 4.7274185661 10.0180728178 7.6390644152 
H 3.7263543317 3.9876877794 8.7507183571 

