&CONTROL
   calculation      = 'nscf'
   verbosity        = 'high'
   restart_mode     = 'from_scratch'
   wf_collect       = .true.
   outdir           = './outdir'
   pseudo_dir       = './pseudo'
/
&SYSTEM
   nbnd             = 1682
   ecutwfc          = 77.0
   ecutrho          = 539.0
   occupations      = 'tetrahedra'
   assume_isolated  = 'esm'
   esm_bc           = 'bc1'
   vdw_corr         = 'dft-d3'
   dftd3_version    = 4
   ntyp             = 3
   nat              = 193
   ibrav            = 0
/
&ELECTRONS
   electron_maxstep = 1000
   conv_thr         = 1e-06
   mixing_beta      = 0.2
   diagonalization  = 'david'
/
&IONS
/
&CELL
/

ATOMIC_SPECIES
Mo 95.95 Mo.pbe-spn-kjpaw_psl.1.0.0.UPF
S 32.06 S.pbe-n-kjpaw_psl.1.0.0.UPF
Pd 106.42 Pd.pbe-spn-kjpaw_psl.1.0.0.UPF

K_POINTS automatic
2 2 1  0 0 0

CELL_PARAMETERS angstrom
12.60495876880469 0.00000000000000 0.00000000000000
-6.30246677944357 10.91622202271285 0.00000000000000
0.00000000000000 0.00000000000000 36.46614571815195

ATOMIC_POSITIONS angstrom
Mo 0.0000119917 1.8193638619 -9.1672481230 
Mo 1.5756136568 0.9097075315 -3.0554901653 
S 0.0000188998 1.8193822938 -4.6232556019 
S 1.5756321638 0.9096773839 -7.6014065489 
S 1.5756326175 0.9096785128 -10.7330757790 
S 0.0000189190 1.8193860094 -1.4877129945 
Mo 0.0000022355 1.8193840089 3.0553801447 
Mo 1.5765321412 0.9103979348 9.1683295450 
S -0.0001968157 1.8147172770 7.5944030120 
S 1.5755997291 0.9096350382 4.6230384833 
S 1.5757238430 0.9097392193 1.4877371021 
S -0.0020022718 1.8174038080 10.7344610991 
Mo -1.5756053507 4.5484193819 -9.1672481230 
Mo 0.0000378379 3.6387394919 -3.0554952701 
S -1.5755913433 4.5484363582 -4.6232494962 
S 0.0000148214 3.6387329039 -7.6014065489 
S 0.0000152751 3.6387340328 -10.7330757790 
S -1.5755906502 4.5484413613 -1.4877305502 
Mo -1.5755906669 4.5484028713 3.0553832118 
Mo -0.0128121405 3.6313317144 9.1594602593 
S -1.5797323844 4.5505677650 7.5944029538 
S 0.0000614039 3.6387603008 4.6232014137 
S 0.0000732161 3.6387753191 1.4876719171 
S -1.5783108989 4.5476613249 10.7344628324 
Mo -3.1512226931 7.2774749019 -9.1672481230 
Mo -1.5755910988 6.3678216792 -3.0555115988 
S -3.1512162438 7.2774954350 -4.6232578178 
S -1.5756025210 6.3677884239 -7.6014065489 
S -1.5756020673 6.3677895528 -10.7330757790 
S -3.1512127704 7.2774877076 -1.4877200710 
Mo -3.1511902884 7.2775380233 3.0553668189 
Mo -1.5745314860 6.3682160321 9.1683300812 
S -3.1511857409 7.2778401669 7.6011275057 
S -1.5756502030 6.3677815792 4.6230623793 
S -1.5754911141 6.3678221970 1.4877118902 
S -3.1511863542 7.2773106794 10.7371364442 
Mo -4.7268400355 10.0065304219 -9.1672481230 
Mo -3.1512405618 9.0968403586 -3.0554816746 
S -4.7268341792 10.0065523623 -4.6232463762 
S -3.1512198634 9.0968439439 -7.6014065489 
S -3.1512194097 9.0968450728 -10.7330757790 
S -4.7268370797 10.0065537885 -1.4877176751 
Mo -4.7267683953 10.0065119180 3.0553688417 
Mo -3.1511839396 9.0968692593 9.1686835304 
S -4.7265083012 10.0063829582 7.6011283542 
S -3.1511905500 9.0968400549 4.6232406636 
S -3.1511939071 9.0968514255 1.4876120306 
S -4.7269665551 10.0066493650 10.7371383463 
Mo 3.1512517547 1.8193638619 -9.1672481230 
Mo 4.7269020221 0.9097289540 -3.0554823951 
S 3.1512612351 1.8193882564 -4.6232320683 
S 4.7268719268 0.9096773839 -7.6014065489 
S 4.7268723805 0.9096785128 -10.7330757790 
S 3.1512592485 1.8193890201 -1.4877261251 
Mo 3.1512828748 1.8195098628 3.0555913171 
Mo 4.7260398381 0.9103982745 9.1683300085 
S 3.1512869637 1.8207419663 7.6009427549 
S 4.7269628455 0.9096391964 4.6230408574 
S 4.7268355236 0.9097451154 1.4877276558 
S 3.1512866698 1.8202688635 10.7402623521 
Mo 1.5756344123 4.5484193819 -9.1672481230 
Mo 3.1512756394 3.6387769522 -3.0554814834 
S 1.5756504879 4.5484423799 -4.6232390542 
S 3.1512545844 3.6387329039 -7.6014065489 
S 3.1512550381 3.6387340328 -10.7330757790 
S 1.5756466253 4.5484431864 -1.4877251801 
Mo 1.5756924364 4.5484495966 3.0555544754 
Mo 3.1512898976 3.6349141557 9.1709494488 
S 1.5733561252 4.5471083831 7.6088384319 
S 3.1512856989 3.6390084312 4.6236199382 
S 3.1512865517 3.6387426972 1.4878357224 
S 1.5640306654 4.5417238698 10.7538388282 
Mo 0.0000170699 7.2774749019 -9.1672481230 
Mo 1.5756764447 6.3678236689 -3.0554877708 
S 0.0000381981 7.2774979204 -4.6232454413 
S 1.5756372420 6.3677884239 -7.6014065489 
S 1.5756376957 6.3677895528 -10.7330757790 
S 0.0000328088 7.2774946042 -1.4877307940 
Mo 0.0001577433 7.2774146409 3.0555945649 
Mo 1.5723405728 6.3697336348 9.1709500170 
S 0.0012240548 7.2768246154 7.6009433774 
S 1.5758925229 6.3676690247 4.6236211595 
S 1.5756584212 6.3678011072 1.4878302264 
S 0.0008138878 7.2770588381 10.7402628165 
Mo -1.5756002725 10.0065304219 -9.1672481230 
Mo 0.0000873425 9.0968676911 -3.0554912329 
S -1.5755883952 10.0065504530 -4.6232240150 
S 0.0000198996 9.0968439439 -7.6014065489 
S 0.0000203533 9.0968450728 -10.7330757790 
S -1.5755859047 10.0065492576 -1.4877362381 
Mo -1.5756170687 10.0065171421 3.0553661887 
Mo 0.0002255595 9.0957704640 9.1683320835 
S -1.5758576541 10.0063840103 7.6011276587 
S 0.0000233735 9.0969240496 4.6230423106 
S 0.0000626699 9.0967665597 1.4877404209 
S -1.5754003528 10.0066494601 10.7371388802 
Mo 6.3024915177 1.8193638619 -9.1672481230 
Mo 7.8781001445 0.9096521684 -3.0554919963 
S 6.3025008696 1.8193826232 -4.6232480596 
S 7.8781116898 0.9096773839 -7.6014065489 
S 7.8781121435 0.9096785128 -10.7330757790 
S 6.3025042007 1.8193849068 -1.4877147524 
Mo 6.3025571566 1.8193823849 3.0553780418 
Mo 7.8764620648 0.9087261063 9.1643129149 
S 6.3027709974 1.8147134604 7.5944013913 
S 7.8783825520 0.9098330344 4.6229047544 
S 7.8780756312 0.9096439501 1.4874983956 
S 6.3045777457 1.8174032602 10.7344600998 
Mo 4.7268741753 4.5484193819 -9.1672481230 
Mo 6.3024679138 3.6387501714 -3.0554895197 
S 4.7268748770 4.5484386753 -4.6232519432 
S 6.3024943474 3.6387329039 -7.6014065489 
S 6.3024948011 3.6387340328 -10.7330757790 
S 4.7268770533 4.5484432419 -1.4877137856 
Mo 4.7268725440 4.5484568753 3.0555543684 
Mo 6.3153952540 3.6313299119 9.1594560114 
S 4.7292232156 4.5471073519 7.6088386029 
S 6.3024989915 3.6387565206 4.6232002934 
S 6.3024857829 3.6387770042 1.4876706460 
S 4.7385579540 4.5417196876 10.7538362176 
Mo 3.1512568329 7.2774749019 -9.1672481230 
Mo 4.7268384135 6.3678043337 -3.0554959052 
S 3.1512606125 7.2774972547 -4.6232589675 
S 4.7268770050 6.3677884239 -7.6014065489 
S 4.7268774587 6.3677895528 -10.7330757790 
S 3.1512629079 7.2774963749 -1.4877081835 
Mo 3.1512882272 7.2774406206 3.0555524435 
Mo 4.7302428356 6.3697317997 9.1709489125 
S 3.1512917176 7.2801667467 7.6088422568 
S 4.7266780611 6.3676726202 4.6236441896 
S 4.7269104621 6.3678031120 1.4878111255 
S 3.1512937272 7.2909183315 10.7538471465 
Mo 1.5756394905 10.0065304219 -9.1672481230 
Mo 3.1512330605 9.0968514907 -3.0554878870 
S 1.5756499830 10.0065443759 -4.6232632674 
S 3.1512596626 9.0968439439 -7.6014065489 
S 3.1512601163 9.0968450728 -10.7330757790 
S 1.5756503041 10.0065459699 -1.4877044377 
Mo 1.5756938867 10.0065644220 3.0553844106 
Mo 3.1512971444 9.1117113214 9.1594683188 
S 1.5717610566 10.0090917628 7.5944086700 
S 3.1512931461 9.0968214282 4.6232016324 
S 3.1512893096 9.0968057368 1.4876767193 
S 1.5749849060 10.0093178351 10.7344658356 
Mo 9.4537312807 1.8193638619 -9.1672481230 
Mo 11.0293863460 0.9096952246 -3.0554894007 
S 9.4537395970 1.8193770750 -4.6232328036 
S 11.0293514528 0.9096773839 -7.6014065489 
S 11.0293519066 0.9096785128 -10.7330757790 
S 9.4537393632 1.8193794783 -1.4877366147 
Mo 9.4537569356 1.8193725411 3.0550387870 
Mo 11.0310705654 0.9087270431 9.1643130246 
S 9.4537675606 1.8193879340 7.5984040084 
S 11.0291263162 0.9098308197 4.6228902251 
S 11.0294352140 0.9096469036 1.4875121106 
S 9.4537665761 1.8193881252 10.7317327444 
Mo 7.8781139383 4.5484193819 -9.1672481230 
Mo 9.4537539161 3.6387607911 -3.0554933032 
S 7.8781175448 4.5484378232 -4.6232366318 
S 9.4537341104 3.6387329039 -7.6014065489 
S 9.4537345641 3.6387340328 -10.7330757790 
S 7.8781194018 4.5484411585 -1.4877377057 
Mo 7.8781521116 4.5483961276 3.0553829829 
Mo 9.4537704117 3.6407060247 9.1643112903 
S 7.8823181039 4.5505691968 7.5943992006 
S 9.4537626536 3.6384636755 4.6229063290 
S 9.4537608234 3.6388286754 1.4875126762 
S 7.8808932053 4.5476610028 10.7344617045 
Mo 6.3024965959 7.2774749019 -9.1672481230 
Mo 7.8781361655 6.3678242352 -3.0555014130 
S 6.3024973331 7.2774953556 -4.6232392528 
S 7.8781167680 6.3677884239 -7.6014065489 
S 7.8781172217 6.3677895528 -10.7330757790 
S 6.3024989866 7.2774929744 -1.4877349119 
Mo 6.3024028075 7.2774168747 3.0555948900 
Mo 7.8771174608 6.3682159068 9.1683294930 
S 6.3013619593 7.2768243653 7.6009431199 
S 7.8782203197 6.3677843783 4.6230388908 
S 7.8780576024 6.3678238132 1.4877330029 
S 6.3017717612 7.2770587670 10.7402620567 
Mo 4.7268792535 10.0065304219 -9.1672481230 
Mo 6.3025111524 9.0968738021 -3.0554915260 
S 4.7268840634 10.0065452125 -4.6232380477 
S 6.3024994256 9.0968439439 -7.6014065489 
S 6.3024998793 9.0968450728 -10.7330757790 
S 4.7268847312 10.0065459141 -1.4877283294 
Mo 4.7268858494 10.0065616736 3.0553828957 
Mo 6.3023662704 9.0957711554 9.1683317246 
S 4.7308351222 10.0090935050 7.5944058836 
S 6.3025464720 9.0969180409 4.6230541045 
S 6.3025124839 9.0967613033 1.4877258389 
S 4.7276101008 10.0093181641 10.7344666795 
Pd 3.1513007205 5.4580718197 12.2979502594 

